*SPEF "ieee 1481-1999"
*DESIGN "user_project_wrapper"
*DATE "14:57:09 Tuesday September 22, 2026"
*VENDOR "The OpenROAD Project"
*PROGRAM "OpenROAD"
*VERSION "edf00dff99f6c40d67a30c0e22a8191c5d2ed9d6"
*DESIGN_FLOW "NAME_SCOPE LOCAL" "PIN_CAP NONE"
*DIVIDER /
*DELIMITER :
*BUS_DELIMITER []
*T_UNIT 1 NS
*C_UNIT 1 PF
*R_UNIT 1 OHM
*L_UNIT 1 HENRY

*NAME_MAP
*1 analog_io[0]
*2 analog_io[10]
*3 analog_io[11]
*4 analog_io[12]
*5 analog_io[13]
*6 analog_io[14]
*7 analog_io[15]
*8 analog_io[16]
*9 analog_io[17]
*10 analog_io[18]
*11 analog_io[19]
*12 analog_io[1]
*13 analog_io[20]
*14 analog_io[21]
*15 analog_io[22]
*16 analog_io[23]
*17 analog_io[24]
*18 analog_io[25]
*19 analog_io[26]
*20 analog_io[27]
*21 analog_io[28]
*22 analog_io[2]
*23 analog_io[3]
*24 analog_io[4]
*25 analog_io[5]
*26 analog_io[6]
*27 analog_io[7]
*28 analog_io[8]
*29 analog_io[9]
*30 io_in[0]
*31 io_in[10]
*32 io_in[11]
*33 io_in[12]
*34 io_in[13]
*35 io_in[14]
*36 io_in[15]
*37 io_in[16]
*38 io_in[17]
*39 io_in[18]
*40 io_in[19]
*41 io_in[1]
*42 io_in[20]
*43 io_in[21]
*44 io_in[22]
*45 io_in[23]
*46 io_in[24]
*47 io_in[25]
*48 io_in[26]
*49 io_in[27]
*50 io_in[28]
*51 io_in[29]
*52 io_in[2]
*53 io_in[30]
*54 io_in[31]
*55 io_in[32]
*56 io_in[33]
*57 io_in[34]
*58 io_in[35]
*59 io_in[36]
*60 io_in[37]
*61 io_in[3]
*62 io_in[4]
*63 io_in[5]
*64 io_in[6]
*65 io_in[7]
*66 io_in[8]
*67 io_in[9]
*68 io_oeb[0]
*69 io_oeb[10]
*70 io_oeb[11]
*71 io_oeb[12]
*72 io_oeb[13]
*73 io_oeb[14]
*74 io_oeb[15]
*75 io_oeb[16]
*76 io_oeb[17]
*77 io_oeb[18]
*78 io_oeb[19]
*79 io_oeb[1]
*80 io_oeb[20]
*81 io_oeb[21]
*82 io_oeb[22]
*83 io_oeb[23]
*84 io_oeb[24]
*85 io_oeb[25]
*86 io_oeb[26]
*87 io_oeb[27]
*88 io_oeb[28]
*89 io_oeb[29]
*90 io_oeb[2]
*91 io_oeb[30]
*92 io_oeb[31]
*93 io_oeb[32]
*94 io_oeb[33]
*95 io_oeb[34]
*96 io_oeb[35]
*97 io_oeb[36]
*98 io_oeb[37]
*99 io_oeb[3]
*100 io_oeb[4]
*101 io_oeb[5]
*102 io_oeb[6]
*103 io_oeb[7]
*104 io_oeb[8]
*105 io_oeb[9]
*106 io_out[0]
*107 io_out[10]
*108 io_out[11]
*109 io_out[12]
*110 io_out[13]
*111 io_out[14]
*112 io_out[15]
*113 io_out[16]
*114 io_out[17]
*115 io_out[18]
*116 io_out[19]
*117 io_out[1]
*118 io_out[20]
*119 io_out[21]
*120 io_out[22]
*121 io_out[23]
*122 io_out[24]
*123 io_out[25]
*124 io_out[26]
*125 io_out[27]
*126 io_out[28]
*127 io_out[29]
*128 io_out[2]
*129 io_out[30]
*130 io_out[31]
*131 io_out[32]
*132 io_out[33]
*133 io_out[34]
*134 io_out[35]
*135 io_out[36]
*136 io_out[37]
*137 io_out[3]
*138 io_out[4]
*139 io_out[5]
*140 io_out[6]
*141 io_out[7]
*142 io_out[8]
*143 io_out[9]
*144 la_data_in[0]
*145 la_data_in[100]
*146 la_data_in[101]
*147 la_data_in[102]
*148 la_data_in[103]
*149 la_data_in[104]
*150 la_data_in[105]
*151 la_data_in[106]
*152 la_data_in[107]
*153 la_data_in[108]
*154 la_data_in[109]
*155 la_data_in[10]
*156 la_data_in[110]
*157 la_data_in[111]
*158 la_data_in[112]
*159 la_data_in[113]
*160 la_data_in[114]
*161 la_data_in[115]
*162 la_data_in[116]
*163 la_data_in[117]
*164 la_data_in[118]
*165 la_data_in[119]
*166 la_data_in[11]
*167 la_data_in[120]
*168 la_data_in[121]
*169 la_data_in[122]
*170 la_data_in[123]
*171 la_data_in[124]
*172 la_data_in[125]
*173 la_data_in[126]
*174 la_data_in[127]
*175 la_data_in[12]
*176 la_data_in[13]
*177 la_data_in[14]
*178 la_data_in[15]
*179 la_data_in[16]
*180 la_data_in[17]
*181 la_data_in[18]
*182 la_data_in[19]
*183 la_data_in[1]
*184 la_data_in[20]
*185 la_data_in[21]
*186 la_data_in[22]
*187 la_data_in[23]
*188 la_data_in[24]
*189 la_data_in[25]
*190 la_data_in[26]
*191 la_data_in[27]
*192 la_data_in[28]
*193 la_data_in[29]
*194 la_data_in[2]
*195 la_data_in[30]
*196 la_data_in[31]
*197 la_data_in[32]
*198 la_data_in[33]
*199 la_data_in[34]
*200 la_data_in[35]
*201 la_data_in[36]
*202 la_data_in[37]
*203 la_data_in[38]
*204 la_data_in[39]
*205 la_data_in[3]
*206 la_data_in[40]
*207 la_data_in[41]
*208 la_data_in[42]
*209 la_data_in[43]
*210 la_data_in[44]
*211 la_data_in[45]
*212 la_data_in[46]
*213 la_data_in[47]
*214 la_data_in[48]
*215 la_data_in[49]
*216 la_data_in[4]
*217 la_data_in[50]
*218 la_data_in[51]
*219 la_data_in[52]
*220 la_data_in[53]
*221 la_data_in[54]
*222 la_data_in[55]
*223 la_data_in[56]
*224 la_data_in[57]
*225 la_data_in[58]
*226 la_data_in[59]
*227 la_data_in[5]
*228 la_data_in[60]
*229 la_data_in[61]
*230 la_data_in[62]
*231 la_data_in[63]
*232 la_data_in[64]
*233 la_data_in[65]
*234 la_data_in[66]
*235 la_data_in[67]
*236 la_data_in[68]
*237 la_data_in[69]
*238 la_data_in[6]
*239 la_data_in[70]
*240 la_data_in[71]
*241 la_data_in[72]
*242 la_data_in[73]
*243 la_data_in[74]
*244 la_data_in[75]
*245 la_data_in[76]
*246 la_data_in[77]
*247 la_data_in[78]
*248 la_data_in[79]
*249 la_data_in[7]
*250 la_data_in[80]
*251 la_data_in[81]
*252 la_data_in[82]
*253 la_data_in[83]
*254 la_data_in[84]
*255 la_data_in[85]
*256 la_data_in[86]
*257 la_data_in[87]
*258 la_data_in[88]
*259 la_data_in[89]
*260 la_data_in[8]
*261 la_data_in[90]
*262 la_data_in[91]
*263 la_data_in[92]
*264 la_data_in[93]
*265 la_data_in[94]
*266 la_data_in[95]
*267 la_data_in[96]
*268 la_data_in[97]
*269 la_data_in[98]
*270 la_data_in[99]
*271 la_data_in[9]
*272 la_data_out[0]
*273 la_data_out[100]
*274 la_data_out[101]
*275 la_data_out[102]
*276 la_data_out[103]
*277 la_data_out[104]
*278 la_data_out[105]
*279 la_data_out[106]
*280 la_data_out[107]
*281 la_data_out[108]
*282 la_data_out[109]
*283 la_data_out[10]
*284 la_data_out[110]
*285 la_data_out[111]
*286 la_data_out[112]
*287 la_data_out[113]
*288 la_data_out[114]
*289 la_data_out[115]
*290 la_data_out[116]
*291 la_data_out[117]
*292 la_data_out[118]
*293 la_data_out[119]
*294 la_data_out[11]
*295 la_data_out[120]
*296 la_data_out[121]
*297 la_data_out[122]
*298 la_data_out[123]
*299 la_data_out[124]
*300 la_data_out[125]
*301 la_data_out[126]
*302 la_data_out[127]
*303 la_data_out[12]
*304 la_data_out[13]
*305 la_data_out[14]
*306 la_data_out[15]
*307 la_data_out[16]
*308 la_data_out[17]
*309 la_data_out[18]
*310 la_data_out[19]
*311 la_data_out[1]
*312 la_data_out[20]
*313 la_data_out[21]
*314 la_data_out[22]
*315 la_data_out[23]
*316 la_data_out[24]
*317 la_data_out[25]
*318 la_data_out[26]
*319 la_data_out[27]
*320 la_data_out[28]
*321 la_data_out[29]
*322 la_data_out[2]
*323 la_data_out[30]
*324 la_data_out[31]
*325 la_data_out[32]
*326 la_data_out[33]
*327 la_data_out[34]
*328 la_data_out[35]
*329 la_data_out[36]
*330 la_data_out[37]
*331 la_data_out[38]
*332 la_data_out[39]
*333 la_data_out[3]
*334 la_data_out[40]
*335 la_data_out[41]
*336 la_data_out[42]
*337 la_data_out[43]
*338 la_data_out[44]
*339 la_data_out[45]
*340 la_data_out[46]
*341 la_data_out[47]
*342 la_data_out[48]
*343 la_data_out[49]
*344 la_data_out[4]
*345 la_data_out[50]
*346 la_data_out[51]
*347 la_data_out[52]
*348 la_data_out[53]
*349 la_data_out[54]
*350 la_data_out[55]
*351 la_data_out[56]
*352 la_data_out[57]
*353 la_data_out[58]
*354 la_data_out[59]
*355 la_data_out[5]
*356 la_data_out[60]
*357 la_data_out[61]
*358 la_data_out[62]
*359 la_data_out[63]
*360 la_data_out[64]
*361 la_data_out[65]
*362 la_data_out[66]
*363 la_data_out[67]
*364 la_data_out[68]
*365 la_data_out[69]
*366 la_data_out[6]
*367 la_data_out[70]
*368 la_data_out[71]
*369 la_data_out[72]
*370 la_data_out[73]
*371 la_data_out[74]
*372 la_data_out[75]
*373 la_data_out[76]
*374 la_data_out[77]
*375 la_data_out[78]
*376 la_data_out[79]
*377 la_data_out[7]
*378 la_data_out[80]
*379 la_data_out[81]
*380 la_data_out[82]
*381 la_data_out[83]
*382 la_data_out[84]
*383 la_data_out[85]
*384 la_data_out[86]
*385 la_data_out[87]
*386 la_data_out[88]
*387 la_data_out[89]
*388 la_data_out[8]
*389 la_data_out[90]
*390 la_data_out[91]
*391 la_data_out[92]
*392 la_data_out[93]
*393 la_data_out[94]
*394 la_data_out[95]
*395 la_data_out[96]
*396 la_data_out[97]
*397 la_data_out[98]
*398 la_data_out[99]
*399 la_data_out[9]
*400 la_oenb[0]
*401 la_oenb[100]
*402 la_oenb[101]
*403 la_oenb[102]
*404 la_oenb[103]
*405 la_oenb[104]
*406 la_oenb[105]
*407 la_oenb[106]
*408 la_oenb[107]
*409 la_oenb[108]
*410 la_oenb[109]
*411 la_oenb[10]
*412 la_oenb[110]
*413 la_oenb[111]
*414 la_oenb[112]
*415 la_oenb[113]
*416 la_oenb[114]
*417 la_oenb[115]
*418 la_oenb[116]
*419 la_oenb[117]
*420 la_oenb[118]
*421 la_oenb[119]
*422 la_oenb[11]
*423 la_oenb[120]
*424 la_oenb[121]
*425 la_oenb[122]
*426 la_oenb[123]
*427 la_oenb[124]
*428 la_oenb[125]
*429 la_oenb[126]
*430 la_oenb[127]
*431 la_oenb[12]
*432 la_oenb[13]
*433 la_oenb[14]
*434 la_oenb[15]
*435 la_oenb[16]
*436 la_oenb[17]
*437 la_oenb[18]
*438 la_oenb[19]
*439 la_oenb[1]
*440 la_oenb[20]
*441 la_oenb[21]
*442 la_oenb[22]
*443 la_oenb[23]
*444 la_oenb[24]
*445 la_oenb[25]
*446 la_oenb[26]
*447 la_oenb[27]
*448 la_oenb[28]
*449 la_oenb[29]
*450 la_oenb[2]
*451 la_oenb[30]
*452 la_oenb[31]
*453 la_oenb[32]
*454 la_oenb[33]
*455 la_oenb[34]
*456 la_oenb[35]
*457 la_oenb[36]
*458 la_oenb[37]
*459 la_oenb[38]
*460 la_oenb[39]
*461 la_oenb[3]
*462 la_oenb[40]
*463 la_oenb[41]
*464 la_oenb[42]
*465 la_oenb[43]
*466 la_oenb[44]
*467 la_oenb[45]
*468 la_oenb[46]
*469 la_oenb[47]
*470 la_oenb[48]
*471 la_oenb[49]
*472 la_oenb[4]
*473 la_oenb[50]
*474 la_oenb[51]
*475 la_oenb[52]
*476 la_oenb[53]
*477 la_oenb[54]
*478 la_oenb[55]
*479 la_oenb[56]
*480 la_oenb[57]
*481 la_oenb[58]
*482 la_oenb[59]
*483 la_oenb[5]
*484 la_oenb[60]
*485 la_oenb[61]
*486 la_oenb[62]
*487 la_oenb[63]
*488 la_oenb[64]
*489 la_oenb[65]
*490 la_oenb[66]
*491 la_oenb[67]
*492 la_oenb[68]
*493 la_oenb[69]
*494 la_oenb[6]
*495 la_oenb[70]
*496 la_oenb[71]
*497 la_oenb[72]
*498 la_oenb[73]
*499 la_oenb[74]
*500 la_oenb[75]
*501 la_oenb[76]
*502 la_oenb[77]
*503 la_oenb[78]
*504 la_oenb[79]
*505 la_oenb[7]
*506 la_oenb[80]
*507 la_oenb[81]
*508 la_oenb[82]
*509 la_oenb[83]
*510 la_oenb[84]
*511 la_oenb[85]
*512 la_oenb[86]
*513 la_oenb[87]
*514 la_oenb[88]
*515 la_oenb[89]
*516 la_oenb[8]
*517 la_oenb[90]
*518 la_oenb[91]
*519 la_oenb[92]
*520 la_oenb[93]
*521 la_oenb[94]
*522 la_oenb[95]
*523 la_oenb[96]
*524 la_oenb[97]
*525 la_oenb[98]
*526 la_oenb[99]
*527 la_oenb[9]
*528 user_clock2
*529 user_irq[0]
*530 user_irq[1]
*531 user_irq[2]
*540 wb_clk_i
*541 wb_rst_i
*542 wbs_ack_o
*543 wbs_adr_i[0]
*544 wbs_adr_i[10]
*545 wbs_adr_i[11]
*546 wbs_adr_i[12]
*547 wbs_adr_i[13]
*548 wbs_adr_i[14]
*549 wbs_adr_i[15]
*550 wbs_adr_i[16]
*551 wbs_adr_i[17]
*552 wbs_adr_i[18]
*553 wbs_adr_i[19]
*554 wbs_adr_i[1]
*555 wbs_adr_i[20]
*556 wbs_adr_i[21]
*557 wbs_adr_i[22]
*558 wbs_adr_i[23]
*559 wbs_adr_i[24]
*560 wbs_adr_i[25]
*561 wbs_adr_i[26]
*562 wbs_adr_i[27]
*563 wbs_adr_i[28]
*564 wbs_adr_i[29]
*565 wbs_adr_i[2]
*566 wbs_adr_i[30]
*567 wbs_adr_i[31]
*568 wbs_adr_i[3]
*569 wbs_adr_i[4]
*570 wbs_adr_i[5]
*571 wbs_adr_i[6]
*572 wbs_adr_i[7]
*573 wbs_adr_i[8]
*574 wbs_adr_i[9]
*575 wbs_cyc_i
*576 wbs_dat_i[0]
*577 wbs_dat_i[10]
*578 wbs_dat_i[11]
*579 wbs_dat_i[12]
*580 wbs_dat_i[13]
*581 wbs_dat_i[14]
*582 wbs_dat_i[15]
*583 wbs_dat_i[16]
*584 wbs_dat_i[17]
*585 wbs_dat_i[18]
*586 wbs_dat_i[19]
*587 wbs_dat_i[1]
*588 wbs_dat_i[20]
*589 wbs_dat_i[21]
*590 wbs_dat_i[22]
*591 wbs_dat_i[23]
*592 wbs_dat_i[24]
*593 wbs_dat_i[25]
*594 wbs_dat_i[26]
*595 wbs_dat_i[27]
*596 wbs_dat_i[28]
*597 wbs_dat_i[29]
*598 wbs_dat_i[2]
*599 wbs_dat_i[30]
*600 wbs_dat_i[31]
*601 wbs_dat_i[3]
*602 wbs_dat_i[4]
*603 wbs_dat_i[5]
*604 wbs_dat_i[6]
*605 wbs_dat_i[7]
*606 wbs_dat_i[8]
*607 wbs_dat_i[9]
*608 wbs_dat_o[0]
*609 wbs_dat_o[10]
*610 wbs_dat_o[11]
*611 wbs_dat_o[12]
*612 wbs_dat_o[13]
*613 wbs_dat_o[14]
*614 wbs_dat_o[15]
*615 wbs_dat_o[16]
*616 wbs_dat_o[17]
*617 wbs_dat_o[18]
*618 wbs_dat_o[19]
*619 wbs_dat_o[1]
*620 wbs_dat_o[20]
*621 wbs_dat_o[21]
*622 wbs_dat_o[22]
*623 wbs_dat_o[23]
*624 wbs_dat_o[24]
*625 wbs_dat_o[25]
*626 wbs_dat_o[26]
*627 wbs_dat_o[27]
*628 wbs_dat_o[28]
*629 wbs_dat_o[29]
*630 wbs_dat_o[2]
*631 wbs_dat_o[30]
*632 wbs_dat_o[31]
*633 wbs_dat_o[3]
*634 wbs_dat_o[4]
*635 wbs_dat_o[5]
*636 wbs_dat_o[6]
*637 wbs_dat_o[7]
*638 wbs_dat_o[8]
*639 wbs_dat_o[9]
*640 wbs_sel_i[0]
*641 wbs_sel_i[1]
*642 wbs_sel_i[2]
*643 wbs_sel_i[3]
*644 wbs_stb_i
*645 wbs_we_i
*646 afe_data\[0\]
*647 afe_data\[10\]
*648 afe_data\[11\]
*649 afe_data\[1\]
*650 afe_data\[2\]
*651 afe_data\[3\]
*652 afe_data\[4\]
*653 afe_data\[5\]
*654 afe_data\[6\]
*655 afe_data\[7\]
*656 afe_data\[8\]
*657 afe_data\[9\]
*658 afe_eof
*659 afe_ibias
*660 afe_nbias
*661 afe_refby2
*662 afe_refhi
*663 afe_vout
*664 afe_vref
*665 analog_ctrl\[0\]
*666 analog_ctrl\[100\]
*667 analog_ctrl\[101\]
*668 analog_ctrl\[102\]
*669 analog_ctrl\[103\]
*670 analog_ctrl\[104\]
*671 analog_ctrl\[105\]
*672 analog_ctrl\[106\]
*673 analog_ctrl\[107\]
*674 analog_ctrl\[108\]
*675 analog_ctrl\[109\]
*676 analog_ctrl\[10\]
*677 analog_ctrl\[110\]
*678 analog_ctrl\[111\]
*679 analog_ctrl\[112\]
*680 analog_ctrl\[113\]
*681 analog_ctrl\[114\]
*682 analog_ctrl\[115\]
*683 analog_ctrl\[116\]
*684 analog_ctrl\[117\]
*685 analog_ctrl\[118\]
*686 analog_ctrl\[119\]
*687 analog_ctrl\[11\]
*688 analog_ctrl\[120\]
*689 analog_ctrl\[121\]
*690 analog_ctrl\[122\]
*691 analog_ctrl\[12\]
*692 analog_ctrl\[13\]
*693 analog_ctrl\[14\]
*694 analog_ctrl\[15\]
*695 analog_ctrl\[16\]
*696 analog_ctrl\[17\]
*697 analog_ctrl\[18\]
*698 analog_ctrl\[19\]
*699 analog_ctrl\[1\]
*700 analog_ctrl\[20\]
*701 analog_ctrl\[21\]
*702 analog_ctrl\[22\]
*703 analog_ctrl\[23\]
*704 analog_ctrl\[24\]
*705 analog_ctrl\[25\]
*706 analog_ctrl\[26\]
*707 analog_ctrl\[27\]
*708 analog_ctrl\[28\]
*709 analog_ctrl\[29\]
*710 analog_ctrl\[2\]
*711 analog_ctrl\[30\]
*712 analog_ctrl\[31\]
*713 analog_ctrl\[32\]
*714 analog_ctrl\[33\]
*715 analog_ctrl\[34\]
*716 analog_ctrl\[35\]
*717 analog_ctrl\[36\]
*718 analog_ctrl\[37\]
*719 analog_ctrl\[38\]
*720 analog_ctrl\[39\]
*721 analog_ctrl\[3\]
*722 analog_ctrl\[40\]
*723 analog_ctrl\[41\]
*724 analog_ctrl\[42\]
*725 analog_ctrl\[43\]
*726 analog_ctrl\[44\]
*727 analog_ctrl\[45\]
*728 analog_ctrl\[46\]
*729 analog_ctrl\[47\]
*730 analog_ctrl\[48\]
*731 analog_ctrl\[49\]
*732 analog_ctrl\[4\]
*733 analog_ctrl\[50\]
*734 analog_ctrl\[51\]
*735 analog_ctrl\[52\]
*736 analog_ctrl\[53\]
*737 analog_ctrl\[54\]
*738 analog_ctrl\[55\]
*739 analog_ctrl\[56\]
*740 analog_ctrl\[57\]
*741 analog_ctrl\[58\]
*742 analog_ctrl\[59\]
*743 analog_ctrl\[5\]
*744 analog_ctrl\[60\]
*745 analog_ctrl\[61\]
*746 analog_ctrl\[62\]
*747 analog_ctrl\[63\]
*748 analog_ctrl\[64\]
*749 analog_ctrl\[65\]
*750 analog_ctrl\[66\]
*751 analog_ctrl\[67\]
*752 analog_ctrl\[68\]
*753 analog_ctrl\[69\]
*754 analog_ctrl\[6\]
*755 analog_ctrl\[70\]
*756 analog_ctrl\[71\]
*757 analog_ctrl\[72\]
*758 analog_ctrl\[73\]
*759 analog_ctrl\[74\]
*760 analog_ctrl\[75\]
*761 analog_ctrl\[76\]
*762 analog_ctrl\[77\]
*763 analog_ctrl\[78\]
*764 analog_ctrl\[79\]
*765 analog_ctrl\[7\]
*766 analog_ctrl\[80\]
*767 analog_ctrl\[81\]
*768 analog_ctrl\[82\]
*769 analog_ctrl\[83\]
*770 analog_ctrl\[84\]
*771 analog_ctrl\[85\]
*772 analog_ctrl\[86\]
*773 analog_ctrl\[87\]
*774 analog_ctrl\[88\]
*775 analog_ctrl\[89\]
*776 analog_ctrl\[8\]
*777 analog_ctrl\[90\]
*778 analog_ctrl\[91\]
*779 analog_ctrl\[92\]
*780 analog_ctrl\[93\]
*781 analog_ctrl\[94\]
*782 analog_ctrl\[95\]
*783 analog_ctrl\[96\]
*784 analog_ctrl\[97\]
*785 analog_ctrl\[98\]
*786 analog_ctrl\[99\]
*787 analog_ctrl\[9\]
*788 sram_ack
*789 sram_adr\[0\]
*790 sram_adr\[10\]
*791 sram_adr\[11\]
*792 sram_adr\[12\]
*793 sram_adr\[13\]
*794 sram_adr\[14\]
*795 sram_adr\[15\]
*796 sram_adr\[16\]
*797 sram_adr\[17\]
*798 sram_adr\[18\]
*799 sram_adr\[19\]
*800 sram_adr\[1\]
*801 sram_adr\[20\]
*802 sram_adr\[21\]
*803 sram_adr\[22\]
*804 sram_adr\[23\]
*805 sram_adr\[24\]
*806 sram_adr\[25\]
*807 sram_adr\[26\]
*808 sram_adr\[27\]
*809 sram_adr\[28\]
*810 sram_adr\[29\]
*811 sram_adr\[2\]
*812 sram_adr\[30\]
*813 sram_adr\[31\]
*814 sram_adr\[3\]
*815 sram_adr\[4\]
*816 sram_adr\[5\]
*817 sram_adr\[6\]
*818 sram_adr\[7\]
*819 sram_adr\[8\]
*820 sram_adr\[9\]
*821 sram_cyc
*822 sram_rdat\[0\]
*823 sram_rdat\[10\]
*824 sram_rdat\[11\]
*825 sram_rdat\[12\]
*826 sram_rdat\[13\]
*827 sram_rdat\[14\]
*828 sram_rdat\[15\]
*829 sram_rdat\[16\]
*830 sram_rdat\[17\]
*831 sram_rdat\[18\]
*832 sram_rdat\[19\]
*833 sram_rdat\[1\]
*834 sram_rdat\[20\]
*835 sram_rdat\[21\]
*836 sram_rdat\[22\]
*837 sram_rdat\[23\]
*838 sram_rdat\[24\]
*839 sram_rdat\[25\]
*840 sram_rdat\[26\]
*841 sram_rdat\[27\]
*842 sram_rdat\[28\]
*843 sram_rdat\[29\]
*844 sram_rdat\[2\]
*845 sram_rdat\[30\]
*846 sram_rdat\[31\]
*847 sram_rdat\[3\]
*848 sram_rdat\[4\]
*849 sram_rdat\[5\]
*850 sram_rdat\[6\]
*851 sram_rdat\[7\]
*852 sram_rdat\[8\]
*853 sram_rdat\[9\]
*854 sram_sel\[0\]
*855 sram_sel\[1\]
*856 sram_sel\[2\]
*857 sram_sel\[3\]
*858 sram_stb
*859 sram_wdat\[0\]
*860 sram_wdat\[10\]
*861 sram_wdat\[11\]
*862 sram_wdat\[12\]
*863 sram_wdat\[13\]
*864 sram_wdat\[14\]
*865 sram_wdat\[15\]
*866 sram_wdat\[16\]
*867 sram_wdat\[17\]
*868 sram_wdat\[18\]
*869 sram_wdat\[19\]
*870 sram_wdat\[1\]
*871 sram_wdat\[20\]
*872 sram_wdat\[21\]
*873 sram_wdat\[22\]
*874 sram_wdat\[23\]
*875 sram_wdat\[24\]
*876 sram_wdat\[25\]
*877 sram_wdat\[26\]
*878 sram_wdat\[27\]
*879 sram_wdat\[28\]
*880 sram_wdat\[29\]
*881 sram_wdat\[2\]
*882 sram_wdat\[30\]
*883 sram_wdat\[31\]
*884 sram_wdat\[3\]
*885 sram_wdat\[4\]
*886 sram_wdat\[5\]
*887 sram_wdat\[6\]
*888 sram_wdat\[7\]
*889 sram_wdat\[8\]
*890 sram_wdat\[9\]
*891 sram_we
*892 u_cf_adc_sar12
*893 u_cf_adc_sar12_sar_refs
*894 u_cf_bgr
*895 u_cf_buf_hiz
*896 u_cf_refbuf
*897 u_soc_sys
*898 u_sram

*PORTS
analog_io[0] I
analog_io[10] I
analog_io[11] I
analog_io[12] I
analog_io[13] I
analog_io[14] I
analog_io[15] I
analog_io[16] I
analog_io[17] I
analog_io[18] I
analog_io[19] I
analog_io[1] I
analog_io[20] I
analog_io[21] I
analog_io[22] I
analog_io[23] I
analog_io[24] I
analog_io[25] I
analog_io[26] I
analog_io[27] I
analog_io[28] I
analog_io[2] I
analog_io[3] I
analog_io[4] I
analog_io[5] I
analog_io[6] I
analog_io[7] I
analog_io[8] I
analog_io[9] I
io_in[0] I
io_in[10] I
io_in[11] I
io_in[12] I
io_in[13] I
io_in[14] I
io_in[15] I
io_in[16] I
io_in[17] I
io_in[18] I
io_in[19] I
io_in[1] I
io_in[20] I
io_in[21] I
io_in[22] I
io_in[23] I
io_in[24] I
io_in[25] I
io_in[26] I
io_in[27] I
io_in[28] I
io_in[29] I
io_in[2] I
io_in[30] I
io_in[31] I
io_in[32] I
io_in[33] I
io_in[34] I
io_in[35] I
io_in[36] I
io_in[37] I
io_in[3] I
io_in[4] I
io_in[5] I
io_in[6] I
io_in[7] I
io_in[8] I
io_in[9] I
io_oeb[0] O
io_oeb[10] O
io_oeb[11] O
io_oeb[12] O
io_oeb[13] O
io_oeb[14] O
io_oeb[15] O
io_oeb[16] O
io_oeb[17] O
io_oeb[18] O
io_oeb[19] O
io_oeb[1] O
io_oeb[20] O
io_oeb[21] O
io_oeb[22] O
io_oeb[23] O
io_oeb[24] O
io_oeb[25] O
io_oeb[26] O
io_oeb[27] O
io_oeb[28] O
io_oeb[29] O
io_oeb[2] O
io_oeb[30] O
io_oeb[31] O
io_oeb[32] O
io_oeb[33] O
io_oeb[34] O
io_oeb[35] O
io_oeb[36] O
io_oeb[37] O
io_oeb[3] O
io_oeb[4] O
io_oeb[5] O
io_oeb[6] O
io_oeb[7] O
io_oeb[8] O
io_oeb[9] O
io_out[0] O
io_out[10] O
io_out[11] O
io_out[12] O
io_out[13] O
io_out[14] O
io_out[15] O
io_out[16] O
io_out[17] O
io_out[18] O
io_out[19] O
io_out[1] O
io_out[20] O
io_out[21] O
io_out[22] O
io_out[23] O
io_out[24] O
io_out[25] O
io_out[26] O
io_out[27] O
io_out[28] O
io_out[29] O
io_out[2] O
io_out[30] O
io_out[31] O
io_out[32] O
io_out[33] O
io_out[34] O
io_out[35] O
io_out[36] O
io_out[37] O
io_out[3] O
io_out[4] O
io_out[5] O
io_out[6] O
io_out[7] O
io_out[8] O
io_out[9] O
la_data_in[0] I
la_data_in[100] I
la_data_in[101] I
la_data_in[102] I
la_data_in[103] I
la_data_in[104] I
la_data_in[105] I
la_data_in[106] I
la_data_in[107] I
la_data_in[108] I
la_data_in[109] I
la_data_in[10] I
la_data_in[110] I
la_data_in[111] I
la_data_in[112] I
la_data_in[113] I
la_data_in[114] I
la_data_in[115] I
la_data_in[116] I
la_data_in[117] I
la_data_in[118] I
la_data_in[119] I
la_data_in[11] I
la_data_in[120] I
la_data_in[121] I
la_data_in[122] I
la_data_in[123] I
la_data_in[124] I
la_data_in[125] I
la_data_in[126] I
la_data_in[127] I
la_data_in[12] I
la_data_in[13] I
la_data_in[14] I
la_data_in[15] I
la_data_in[16] I
la_data_in[17] I
la_data_in[18] I
la_data_in[19] I
la_data_in[1] I
la_data_in[20] I
la_data_in[21] I
la_data_in[22] I
la_data_in[23] I
la_data_in[24] I
la_data_in[25] I
la_data_in[26] I
la_data_in[27] I
la_data_in[28] I
la_data_in[29] I
la_data_in[2] I
la_data_in[30] I
la_data_in[31] I
la_data_in[32] I
la_data_in[33] I
la_data_in[34] I
la_data_in[35] I
la_data_in[36] I
la_data_in[37] I
la_data_in[38] I
la_data_in[39] I
la_data_in[3] I
la_data_in[40] I
la_data_in[41] I
la_data_in[42] I
la_data_in[43] I
la_data_in[44] I
la_data_in[45] I
la_data_in[46] I
la_data_in[47] I
la_data_in[48] I
la_data_in[49] I
la_data_in[4] I
la_data_in[50] I
la_data_in[51] I
la_data_in[52] I
la_data_in[53] I
la_data_in[54] I
la_data_in[55] I
la_data_in[56] I
la_data_in[57] I
la_data_in[58] I
la_data_in[59] I
la_data_in[5] I
la_data_in[60] I
la_data_in[61] I
la_data_in[62] I
la_data_in[63] I
la_data_in[64] I
la_data_in[65] I
la_data_in[66] I
la_data_in[67] I
la_data_in[68] I
la_data_in[69] I
la_data_in[6] I
la_data_in[70] I
la_data_in[71] I
la_data_in[72] I
la_data_in[73] I
la_data_in[74] I
la_data_in[75] I
la_data_in[76] I
la_data_in[77] I
la_data_in[78] I
la_data_in[79] I
la_data_in[7] I
la_data_in[80] I
la_data_in[81] I
la_data_in[82] I
la_data_in[83] I
la_data_in[84] I
la_data_in[85] I
la_data_in[86] I
la_data_in[87] I
la_data_in[88] I
la_data_in[89] I
la_data_in[8] I
la_data_in[90] I
la_data_in[91] I
la_data_in[92] I
la_data_in[93] I
la_data_in[94] I
la_data_in[95] I
la_data_in[96] I
la_data_in[97] I
la_data_in[98] I
la_data_in[99] I
la_data_in[9] I
la_data_out[0] O
la_data_out[100] O
la_data_out[101] O
la_data_out[102] O
la_data_out[103] O
la_data_out[104] O
la_data_out[105] O
la_data_out[106] O
la_data_out[107] O
la_data_out[108] O
la_data_out[109] O
la_data_out[10] O
la_data_out[110] O
la_data_out[111] O
la_data_out[112] O
la_data_out[113] O
la_data_out[114] O
la_data_out[115] O
la_data_out[116] O
la_data_out[117] O
la_data_out[118] O
la_data_out[119] O
la_data_out[11] O
la_data_out[120] O
la_data_out[121] O
la_data_out[122] O
la_data_out[123] O
la_data_out[124] O
la_data_out[125] O
la_data_out[126] O
la_data_out[127] O
la_data_out[12] O
la_data_out[13] O
la_data_out[14] O
la_data_out[15] O
la_data_out[16] O
la_data_out[17] O
la_data_out[18] O
la_data_out[19] O
la_data_out[1] O
la_data_out[20] O
la_data_out[21] O
la_data_out[22] O
la_data_out[23] O
la_data_out[24] O
la_data_out[25] O
la_data_out[26] O
la_data_out[27] O
la_data_out[28] O
la_data_out[29] O
la_data_out[2] O
la_data_out[30] O
la_data_out[31] O
la_data_out[32] O
la_data_out[33] O
la_data_out[34] O
la_data_out[35] O
la_data_out[36] O
la_data_out[37] O
la_data_out[38] O
la_data_out[39] O
la_data_out[3] O
la_data_out[40] O
la_data_out[41] O
la_data_out[42] O
la_data_out[43] O
la_data_out[44] O
la_data_out[45] O
la_data_out[46] O
la_data_out[47] O
la_data_out[48] O
la_data_out[49] O
la_data_out[4] O
la_data_out[50] O
la_data_out[51] O
la_data_out[52] O
la_data_out[53] O
la_data_out[54] O
la_data_out[55] O
la_data_out[56] O
la_data_out[57] O
la_data_out[58] O
la_data_out[59] O
la_data_out[5] O
la_data_out[60] O
la_data_out[61] O
la_data_out[62] O
la_data_out[63] O
la_data_out[64] O
la_data_out[65] O
la_data_out[66] O
la_data_out[67] O
la_data_out[68] O
la_data_out[69] O
la_data_out[6] O
la_data_out[70] O
la_data_out[71] O
la_data_out[72] O
la_data_out[73] O
la_data_out[74] O
la_data_out[75] O
la_data_out[76] O
la_data_out[77] O
la_data_out[78] O
la_data_out[79] O
la_data_out[7] O
la_data_out[80] O
la_data_out[81] O
la_data_out[82] O
la_data_out[83] O
la_data_out[84] O
la_data_out[85] O
la_data_out[86] O
la_data_out[87] O
la_data_out[88] O
la_data_out[89] O
la_data_out[8] O
la_data_out[90] O
la_data_out[91] O
la_data_out[92] O
la_data_out[93] O
la_data_out[94] O
la_data_out[95] O
la_data_out[96] O
la_data_out[97] O
la_data_out[98] O
la_data_out[99] O
la_data_out[9] O
la_oenb[0] I
la_oenb[100] I
la_oenb[101] I
la_oenb[102] I
la_oenb[103] I
la_oenb[104] I
la_oenb[105] I
la_oenb[106] I
la_oenb[107] I
la_oenb[108] I
la_oenb[109] I
la_oenb[10] I
la_oenb[110] I
la_oenb[111] I
la_oenb[112] I
la_oenb[113] I
la_oenb[114] I
la_oenb[115] I
la_oenb[116] I
la_oenb[117] I
la_oenb[118] I
la_oenb[119] I
la_oenb[11] I
la_oenb[120] I
la_oenb[121] I
la_oenb[122] I
la_oenb[123] I
la_oenb[124] I
la_oenb[125] I
la_oenb[126] I
la_oenb[127] I
la_oenb[12] I
la_oenb[13] I
la_oenb[14] I
la_oenb[15] I
la_oenb[16] I
la_oenb[17] I
la_oenb[18] I
la_oenb[19] I
la_oenb[1] I
la_oenb[20] I
la_oenb[21] I
la_oenb[22] I
la_oenb[23] I
la_oenb[24] I
la_oenb[25] I
la_oenb[26] I
la_oenb[27] I
la_oenb[28] I
la_oenb[29] I
la_oenb[2] I
la_oenb[30] I
la_oenb[31] I
la_oenb[32] I
la_oenb[33] I
la_oenb[34] I
la_oenb[35] I
la_oenb[36] I
la_oenb[37] I
la_oenb[38] I
la_oenb[39] I
la_oenb[3] I
la_oenb[40] I
la_oenb[41] I
la_oenb[42] I
la_oenb[43] I
la_oenb[44] I
la_oenb[45] I
la_oenb[46] I
la_oenb[47] I
la_oenb[48] I
la_oenb[49] I
la_oenb[4] I
la_oenb[50] I
la_oenb[51] I
la_oenb[52] I
la_oenb[53] I
la_oenb[54] I
la_oenb[55] I
la_oenb[56] I
la_oenb[57] I
la_oenb[58] I
la_oenb[59] I
la_oenb[5] I
la_oenb[60] I
la_oenb[61] I
la_oenb[62] I
la_oenb[63] I
la_oenb[64] I
la_oenb[65] I
la_oenb[66] I
la_oenb[67] I
la_oenb[68] I
la_oenb[69] I
la_oenb[6] I
la_oenb[70] I
la_oenb[71] I
la_oenb[72] I
la_oenb[73] I
la_oenb[74] I
la_oenb[75] I
la_oenb[76] I
la_oenb[77] I
la_oenb[78] I
la_oenb[79] I
la_oenb[7] I
la_oenb[80] I
la_oenb[81] I
la_oenb[82] I
la_oenb[83] I
la_oenb[84] I
la_oenb[85] I
la_oenb[86] I
la_oenb[87] I
la_oenb[88] I
la_oenb[89] I
la_oenb[8] I
la_oenb[90] I
la_oenb[91] I
la_oenb[92] I
la_oenb[93] I
la_oenb[94] I
la_oenb[95] I
la_oenb[96] I
la_oenb[97] I
la_oenb[98] I
la_oenb[99] I
la_oenb[9] I
user_clock2 I
user_irq[0] O
user_irq[1] O
user_irq[2] O
wb_clk_i I
wb_rst_i I
wbs_ack_o O
wbs_adr_i[0] I
wbs_adr_i[10] I
wbs_adr_i[11] I
wbs_adr_i[12] I
wbs_adr_i[13] I
wbs_adr_i[14] I
wbs_adr_i[15] I
wbs_adr_i[16] I
wbs_adr_i[17] I
wbs_adr_i[18] I
wbs_adr_i[19] I
wbs_adr_i[1] I
wbs_adr_i[20] I
wbs_adr_i[21] I
wbs_adr_i[22] I
wbs_adr_i[23] I
wbs_adr_i[24] I
wbs_adr_i[25] I
wbs_adr_i[26] I
wbs_adr_i[27] I
wbs_adr_i[28] I
wbs_adr_i[29] I
wbs_adr_i[2] I
wbs_adr_i[30] I
wbs_adr_i[31] I
wbs_adr_i[3] I
wbs_adr_i[4] I
wbs_adr_i[5] I
wbs_adr_i[6] I
wbs_adr_i[7] I
wbs_adr_i[8] I
wbs_adr_i[9] I
wbs_cyc_i I
wbs_dat_i[0] I
wbs_dat_i[10] I
wbs_dat_i[11] I
wbs_dat_i[12] I
wbs_dat_i[13] I
wbs_dat_i[14] I
wbs_dat_i[15] I
wbs_dat_i[16] I
wbs_dat_i[17] I
wbs_dat_i[18] I
wbs_dat_i[19] I
wbs_dat_i[1] I
wbs_dat_i[20] I
wbs_dat_i[21] I
wbs_dat_i[22] I
wbs_dat_i[23] I
wbs_dat_i[24] I
wbs_dat_i[25] I
wbs_dat_i[26] I
wbs_dat_i[27] I
wbs_dat_i[28] I
wbs_dat_i[29] I
wbs_dat_i[2] I
wbs_dat_i[30] I
wbs_dat_i[31] I
wbs_dat_i[3] I
wbs_dat_i[4] I
wbs_dat_i[5] I
wbs_dat_i[6] I
wbs_dat_i[7] I
wbs_dat_i[8] I
wbs_dat_i[9] I
wbs_dat_o[0] O
wbs_dat_o[10] O
wbs_dat_o[11] O
wbs_dat_o[12] O
wbs_dat_o[13] O
wbs_dat_o[14] O
wbs_dat_o[15] O
wbs_dat_o[16] O
wbs_dat_o[17] O
wbs_dat_o[18] O
wbs_dat_o[19] O
wbs_dat_o[1] O
wbs_dat_o[20] O
wbs_dat_o[21] O
wbs_dat_o[22] O
wbs_dat_o[23] O
wbs_dat_o[24] O
wbs_dat_o[25] O
wbs_dat_o[26] O
wbs_dat_o[27] O
wbs_dat_o[28] O
wbs_dat_o[29] O
wbs_dat_o[2] O
wbs_dat_o[30] O
wbs_dat_o[31] O
wbs_dat_o[3] O
wbs_dat_o[4] O
wbs_dat_o[5] O
wbs_dat_o[6] O
wbs_dat_o[7] O
wbs_dat_o[8] O
wbs_dat_o[9] O
wbs_sel_i[0] I
wbs_sel_i[1] I
wbs_sel_i[2] I
wbs_sel_i[3] I
wbs_stb_i I
wbs_we_i I

*D_NET *1 0.320283
*CONN
*P analog_io[0] I
*I *894:vb2_fast I *D CF_BGR
*CAP
1 analog_io[0] 0.13329
2 *894:vb2_fast 0.00264342
3 *1:9 0.0140471
4 *1:7 0.0114037
5 *1:5 0.13329
6 *1:9 *80:22 0.0256084
7 *1:9 *81:14 0
*RES
1 analog_io[0] *1:5 401.435 
2 *1:5 *1:7 3.41 
3 *1:7 *1:9 53.7398 
4 *1:9 *894:vb2_fast 26.7787 
*END

*D_NET *12 0.370885
*CONN
*P analog_io[1] I
*I *895:vinp_p I *D CF_BUF_HIZ
*CAP
1 analog_io[1] 0.129254
2 *895:vinp_p 0.00455751
3 *12:13 0.0245439
4 *12:11 0.0199864
5 *12:9 0.0265809
6 *12:7 0.0265809
7 *12:5 0.129254
8 *895:vinp_p *895:clk2_boost 0
9 *895:vinp_p *895:vinp_na 1.91915e-05
10 *895:vinp_p *895:vinn_na 1.08352e-05
11 *895:vinp_p *895:vinn_p 1.22852e-05
12 *895:vinp_p *75:30 0.0100861
13 *12:5 *67:71 0
*RES
1 analog_io[1] *12:5 366.879 
2 *12:5 *12:7 3.41 
3 *12:7 *12:9 541.696 
4 *12:9 *12:11 3.41 
5 *12:11 *12:13 58.6732 
6 *12:13 *895:vinp_p 37.5185 
*END

*D_NET *13 0.295389
*CONN
*P analog_io[20] I
*I *892:vinm I *D CF_ADC_SAR12
*CAP
1 analog_io[20] 0.00205719
2 *892:vinm 0.00703889
3 *13:15 0.0928775
4 *13:13 0.0858387
5 *13:11 0.0499446
6 *13:9 0.0520018
7 *892:vinm *892:vreflo 0
8 *892:vinm *892:vinp 0.00102472
9 *892:vinm *659:39 0.00104674
10 *13:15 *28:24 0.00355848
*RES
1 analog_io[20] *13:9 5.51937 
2 *13:9 *13:11 150.81 
3 *13:11 *13:13 3.41 
4 *13:13 *13:15 270.535 
5 *13:15 *892:vinm 26.3507 
*END

*D_NET *14 0.347877
*CONN
*P analog_io[21] I
*I *893:refout O *D CF_ADC_SAR12_sar_refs
*CAP
1 analog_io[21] 0.00209336
2 *893:refout 0.00187891
3 *14:19 0.0851462
4 *14:17 0.0830528
5 *14:15 0.0868653
6 *14:13 0.0887442
7 *14:13 *893:IREF_VREFBUF 9.60363e-05
8 *14:13 *662:13 0
*RES
1 *893:refout *14:13 12.594 
2 *14:13 *14:15 277.034 
3 *14:15 *14:17 3.41 
4 *14:17 *14:19 251.271 
5 *14:19 analog_io[21] 5.51937 
*END

*D_NET *15 0.241243
*CONN
*P analog_io[22] I
*I *892:vreflo I *D CF_ADC_SAR12
*CAP
1 analog_io[22] 0.00214312
2 *892:vreflo 0.00342186
3 *15:15 0.0612309
4 *15:13 0.0578091
5 *15:11 0.0538704
6 *15:9 0.0560135
7 *892:vreflo *892:vinp 0.00102472
8 *892:vreflo *659:39 0.000918389
9 *15:15 *709:17 6.7962e-06
10 *15:15 *711:21 0.00480404
11 *15:15 *712:17 0
12 *892:vinm *892:vreflo 0
*RES
1 analog_io[22] *15:9 5.51937 
2 *15:9 *15:11 162.629 
3 *15:11 *15:13 3.41 
4 *15:13 *15:15 188.078 
5 *15:15 *892:vreflo 14.5318 
*END

*D_NET *17 0.0229973
*CONN
*P analog_io[24] I
*I *894:dft_curr_in I *D CF_BGR
*CAP
1 analog_io[24] 0.00260027
2 *894:dft_curr_in 0.00341145
3 *17:11 0.00717944
4 *17:9 0.00636827
5 *17:9 *124:17 0.000322558
6 *17:11 *82:17 0.00311527
*RES
1 analog_io[24] *17:9 9.63593 
2 *17:9 *17:11 77.2321 
3 *17:11 *894:dft_curr_in 18.1394 
*END

*D_NET *18 0.22451
*CONN
*P analog_io[25] I
*I *892:vdda I *D CF_ADC_SAR12
*I *893:vdda I *D CF_ADC_SAR12_sar_refs
*CAP
1 analog_io[25] 0.0071429
2 *892:vdda 3.163e-05
3 *893:vdda 0
4 *18:33 0.0174229
5 *18:31 0.0174229
6 *18:29 0.0282773
7 *18:27 0.0316723
8 *18:23 0.0128409
9 *18:19 0.0539755
10 *18:17 0.0462235
11 *18:13 0.00880515
12 *892:vdda *776:35 2.48858e-05
13 *18:29 *655:27 0
14 *18:33 *893:VPUMP 0.000670547
*RES
1 analog_io[25] *18:13 23.0654 
2 *18:13 *18:17 37.535 
3 *18:17 *18:19 132.974 
4 *18:19 *18:23 32.1145 
5 *18:23 *18:27 13.6842 
6 *18:27 *18:29 78.3114 
7 *18:29 *18:31 3.41 
8 *18:31 *18:33 50.5438 
9 *18:33 *893:vdda 3.41 
10 *18:23 *892:vdda 6.90303 
*END

*D_NET *19 0.226075
*CONN
*P analog_io[26] I
*I *892:vssa I *D CF_ADC_SAR12
*I *893:vssa_shield I *D CF_ADC_SAR12_sar_refs
*I *893:vssa I *D CF_ADC_SAR12_sar_refs
*CAP
1 analog_io[26] 0.00227523
2 *892:vssa 0.00119423
3 *893:vssa_shield 0.000650002
4 *893:vssa 0.0315393
5 *19:29 0.0478352
6 *19:27 0.0326029
7 *19:13 0.0168512
8 *19:11 0.0421294
9 *19:9 0.0444046
10 *892:vssa *892:pd_ana 0
11 *893:vssa *893:S_LV[4] 0.00127604
12 *893:vssa *893:S_LV[3] 0.00127604
13 *893:vssa *893:S_LV[2] 0.00127604
14 *893:vssa *893:S_LV[1] 0.00127604
15 *893:vssa *893:S_LV[0] 0.00148859
*RES
1 analog_io[26] *19:9 5.51937 
2 *19:9 *19:11 126.848 
3 *19:11 *19:13 3.41 
4 *19:13 *19:27 47.7704 
5 *19:27 *19:29 52.2483 
6 *19:29 *893:vssa 12.2939 
7 *893:vssa *893:vssa_shield 9.64286 
8 *19:13 *892:vssa 24.6161 
*END

*D_NET *20 0.214174
*CONN
*P analog_io[27] I
*I *892:VPUMP I *D CF_ADC_SAR12
*I *893:VPUMP I *D CF_ADC_SAR12_sar_refs
*CAP
1 analog_io[27] 0.0503494
2 *892:VPUMP 0.0106603
3 *893:VPUMP 0.00333988
4 *20:29 0.0353776
5 *20:27 0.0320377
6 *20:25 0.00287161
7 *20:23 0.00352705
8 *20:17 0.0616651
9 *892:VPUMP *528:19 0.0110397
10 *892:VPUMP *784:23 0
11 *20:17 *92:17 0.000228481
12 *20:17 *528:19 3.26217e-05
13 *20:25 *760:33 0.00237353
14 *20:29 *67:181 0
15 *18:33 *893:VPUMP 0.000670547
*RES
1 analog_io[27] *20:17 22.4507 
2 *20:17 *20:23 8.84883 
3 *20:23 *20:25 59.0179 
4 *20:25 *20:27 3.41 
5 *20:27 *20:29 94.6345 
6 *20:29 *893:VPUMP 17.7334 
7 *20:17 *892:VPUMP 47.6683 
*END

*D_NET *22 0.381912
*CONN
*P analog_io[2] I
*I *895:vinn_p I *D CF_BUF_HIZ
*CAP
1 analog_io[2] 0.140092
2 *895:vinn_p 0.00103884
3 *22:9 0.050218
4 *22:7 0.0491791
5 *22:5 0.140092
6 *895:vinn_p *895:vinp_n 0.00126575
7 *895:vinn_p *895:vinn_na 1.3575e-05
8 *22:5 *67:23 0
9 *895:vinp_p *895:vinn_p 1.22852e-05
*RES
1 analog_io[2] *22:5 423.199 
2 *22:5 *22:7 3.41 
3 *22:7 *22:9 156.758 
4 *22:9 *895:vinn_p 21.8221 
*END

*D_NET *23 0.431876
*CONN
*P analog_io[3] I
*I *895:vinp_n I *D CF_BUF_HIZ
*CAP
1 analog_io[3] 0.139226
2 *895:vinp_n 0.00155427
3 *23:9 0.0727324
4 *23:7 0.0711781
5 *23:5 0.139226
6 *895:vinp_n *895:clk2_boost 6.46529e-05
7 *895:vinp_n *895:clk1_boostr 0.000134594
8 *895:vinp_n *895:vinp_na 4.3266e-05
9 *895:vinp_n *895:e_n_boost 2.98071e-05
10 *23:9 *120:14 0.00642264
11 *895:vinn_p *895:vinp_n 0.00126575
*RES
1 analog_io[3] *23:5 421.037 
2 *23:5 *23:7 3.41 
3 *23:7 *23:9 198.199 
4 *23:9 *895:vinp_n 26.3182 
*END

*D_NET *24 0.480445
*CONN
*P analog_io[4] I
*I *895:vinn_n I *D CF_BUF_HIZ
*CAP
1 analog_io[4] 0.000224504
2 *895:vinn_n 0.00220251
3 *24:17 0.0222651
4 *24:15 0.0200626
5 *24:13 0.138904
6 *24:11 0.138904
7 *24:9 0.0311355
8 *24:7 0.03136
9 *895:vinn_n *895:clk2_boost 2.11419e-05
10 *895:vinn_n *895:vinp_na 0.00445588
11 *895:vinn_n *895:vinn_na 0.00907303
12 *895:vinn_n *895:e_na_boost 4.69361e-05
13 *895:vinn_n *710:29 0.00305474
14 *895:vinn_n *732:29 0.000569104
15 *24:9 *26:9 0.0264905
16 *24:9 *65:9 0.000998766
17 *24:9 *69:25 0.030429
18 *24:9 *71:33 0.00222328
19 *24:9 *141:25 0.00272217
20 *24:13 *894:trimTC[4] 2.48858e-05
21 *24:13 *894:trimTC[0] 4.4106e-05
22 *24:13 *894:trimTC[1] 0.000176009
23 *24:13 *71:29 0
24 *24:13 *81:18 0
25 *24:13 *751:21 9.43287e-05
26 *24:13 *768:18 0
27 *24:17 *77:17 0.0145983
28 *24:17 *115:14 0
29 *24:17 *115:24 0.000364418
*RES
1 analog_io[4] *24:7 3.90193 
2 *24:7 *24:9 901.732 
3 *24:9 *24:11 3.41 
4 *24:11 *24:13 408.197 
5 *24:13 *24:15 3.41 
6 *24:15 *24:17 83.0365 
7 *24:17 *895:vinn_n 28.3272 
*END

*D_NET *25 0.492575
*CONN
*P analog_io[5] I
*I *895:vinp_na I *D CF_BUF_HIZ
*CAP
1 analog_io[5] 0.000616768
2 *895:vinp_na 0.00101426
3 *25:17 0.0731131
4 *25:15 0.0720988
5 *25:13 0.137649
6 *25:11 0.138266
7 *895:vinp_na *895:clk2_boost 6.2289e-05
8 *895:vinp_na *895:e_n_boost 1.17526e-05
9 *895:vinp_na *710:29 0.00445257
10 *25:11 *26:9 0
11 *25:17 *69:17 0.0391105
12 *25:17 *771:17 0.0213766
13 *25:17 *772:29 0.000286006
14 *895:vinp_n *895:vinp_na 4.3266e-05
15 *895:vinn_n *895:vinp_na 0.00445588
16 *895:vinp_p *895:vinp_na 1.91915e-05
*RES
1 analog_io[5] *25:11 13.3336 
2 *25:11 *25:13 416.845 
3 *25:13 *25:15 3.41 
4 *25:15 *25:17 281.828 
5 *25:17 *895:vinp_na 23.148 
*END

*D_NET *26 0.56689
*CONN
*P analog_io[6] I
*I *895:vinn_na I *D CF_BUF_HIZ
*CAP
1 analog_io[6] 0.000102131
2 *895:vinn_na 0.00187179
3 *26:17 0.0174532
4 *26:15 0.0155814
5 *26:13 0.136374
6 *26:11 0.136374
7 *26:9 0.0326133
8 *26:7 0.0327155
9 *895:vinn_na *895:clk2_boost 5.65136e-05
10 *895:vinn_na *895:clk1_boostr 0
11 *895:vinn_na *732:29 0.00510877
12 *26:9 *66:9 0.000247229
13 *26:9 *71:33 0.0312794
14 *26:9 *72:17 0.0113348
15 *26:9 *108:17 0.0325578
16 *26:9 *141:25 0.00738
17 *26:9 *142:30 0.0267113
18 *26:13 *67:95 0.00020513
19 *26:13 *774:22 0
20 *26:17 *894:mux1sel[0] 0.00522661
21 *26:17 *770:25 0.0381086
22 *895:vinn_n *895:vinn_na 0.00907303
23 *895:vinn_p *895:vinn_na 1.3575e-05
24 *895:vinp_p *895:vinn_na 1.08352e-05
25 *24:9 *26:9 0.0264905
26 *25:11 *26:9 0
*RES
1 analog_io[6] *26:7 3.68573 
2 *26:7 *26:9 1394.73 
3 *26:9 *26:11 3.41 
4 *26:11 *26:13 410.719 
5 *26:13 *26:15 3.41 
6 *26:15 *26:17 79.8405 
7 *26:17 *895:vinn_na 26.8123 
*END

*D_NET *27 0.354448
*CONN
*P analog_io[7] I
*I *896:ch1 I *D CF_REFBUF
*I *896:ch2 I *D CF_REFBUF
*I *896:out O *D CF_REFBUF
*CAP
1 analog_io[7] 0.103223
2 *896:ch1 0.000199472
3 *896:ch2 0.00268442
4 *896:out 0.00339951
5 *27:46 0.103223
6 *27:44 0.0704021
7 *27:42 0.0713167
8 *896:ch2 *896:switchon 0
*RES
1 *896:out *896:ch2 14.7223 
2 *896:ch2 *896:ch1 8.1875 
3 *896:out *27:42 27.0357 
4 *27:42 *27:44 1449.83 
5 *27:44 *27:46 3.41 
6 *27:46 analog_io[7] 312.829 
*END

*D_NET *28 0.378764
*CONN
*P analog_io[8] I
*I *896:ng I *D CF_REFBUF
*I *896:vpwre I *D CF_REFBUF
*CAP
1 analog_io[8] 0.0810407
2 *896:ng 0.000493322
3 *896:vpwre 0.00385804
4 *28:24 0.0053294
5 *28:22 0.00483608
6 *28:13 0.00412218
7 *28:9 0.0973747
8 *28:7 0.0971105
9 *28:5 0.0810407
10 *13:15 *28:24 0.00355848
*RES
1 analog_io[8] *28:5 1669.1 
2 *28:5 *28:7 3.41 
3 *28:7 *28:9 294.403 
4 *28:9 *28:13 0.847567 
5 *28:13 *896:vpwre 15.4921 
6 *28:13 *28:22 3.41 
7 *28:22 *28:24 99.0893 
8 *28:24 *896:ng 11.7044 
*END

*D_NET *31 0.98953
*CONN
*P io_in[10] I
*I *897:io_in[3] I *D soc_sys
*CAP
1 io_in[10] 0.00111829
2 *897:io_in[3] 0.000431092
3 *31:23 0.00230244
4 *31:21 0.00205799
5 *31:13 0.189372
6 *31:11 0.189185
7 *31:9 0.08321
8 *31:7 0.0843283
9 *897:io_in[3] *118:17 0.000105035
10 *31:9 *32:9 0.00650254
11 *31:9 *33:9 0.00685453
12 *31:9 *34:9 0.0392378
13 *31:9 *35:9 0.0619564
14 *31:9 *105:33 0.113566
15 *31:9 *107:25 0.00650254
16 *31:9 *109:25 0.00110845
17 *31:9 *111:31 0.00102439
18 *31:9 *143:51 0.00596225
19 *31:9 *528:11 0.0122555
20 *31:13 *34:21 0.00313201
21 *31:13 *35:23 0.0040338
22 *31:13 *36:19 0.00224789
23 *31:13 *66:13 0.0975476
24 *31:13 *557:11 0.00331929
25 *31:13 *570:13 0.00124615
26 *31:13 *574:17 0.00090316
27 *31:13 *581:15 0.0055222
28 *31:13 *582:11 0.0023565
29 *31:13 *585:17 0.00650441
30 *31:13 *593:15 0.00302258
31 *31:13 *594:15 0.00806382
32 *31:13 *609:16 0.00409768
33 *31:13 *626:14 0.00396723
34 *31:13 *629:14 0.00522001
35 *31:13 *872:13 0.00737836
36 *31:13 *887:15 0.00303134
37 *31:13 *889:15 0.00424292
38 *31:13 *891:15 0.00375369
39 *31:21 *34:21 8.65987e-06
40 *31:21 *35:23 0.000141197
41 *31:21 *37:17 1.72675e-05
42 *31:23 *33:25 0.0072345
43 *31:23 *34:25 3.06986e-05
44 *31:23 *37:21 0.000937499
45 *31:23 *103:31 0.00448825
46 *31:23 *542:38 0
*RES
1 io_in[10] *31:7 6.0279 
2 *31:7 *31:9 345.854 
3 *31:9 *31:11 0.38 
4 *31:11 *31:13 51.4689 
5 *31:13 *31:21 7.71543 
6 *31:21 *31:23 94.2321 
7 *31:23 *897:io_in[3] 4.33433 
*END

*D_NET *32 1.05832
*CONN
*P io_in[11] I
*I *897:io_in[4] I *D soc_sys
*CAP
1 io_in[11] 0.000878222
2 *897:io_in[4] 0.000166772
3 *32:25 0.00171193
4 *32:23 0.00154516
5 *32:21 0.0236083
6 *32:19 0.0237068
7 *32:13 0.0311949
8 *32:11 0.0310964
9 *32:9 0.0308765
10 *32:7 0.0317547
11 *897:io_in[4] *897:io_in[5] 0
12 *897:io_in[4] *118:17 0.000156855
13 *32:9 *33:9 0.179828
14 *32:9 *105:33 0.0232656
15 *32:9 *107:25 0.163014
16 *32:9 *143:51 0.000685498
17 *32:13 *33:13 0.153953
18 *32:13 *38:9 0.0822721
19 *32:13 *871:13 0.00632084
20 *32:19 *38:15 6.24939e-05
21 *32:19 *871:9 0
22 *32:21 *36:9 0.0023277
23 *32:21 *38:17 0.124677
24 *32:21 *110:13 0.123329
25 *32:21 *852:11 0.00073618
26 *32:21 *869:13 2.24813e-05
27 *32:25 *36:21 0.00737741
28 *32:25 *40:37 0.00554536
29 *32:25 *142:16 0.00102775
30 *32:25 *542:38 0.000675987
31 *31:9 *32:9 0.00650254
*RES
1 io_in[11] *32:7 5.63153 
2 *32:7 *32:9 2204.21 
3 *32:9 *32:11 4.5 
4 *32:11 *32:13 1446.25 
5 *32:13 *32:19 9.40107 
6 *32:19 *32:21 199.167 
7 *32:21 *32:23 3.41 
8 *32:23 *32:25 92.4107 
9 *32:25 *897:io_in[4] 3.90193 
*END

*D_NET *33 1.04185
*CONN
*P io_in[12] I
*I *897:io_in[5] I *D soc_sys
*CAP
1 io_in[12] 0.000839877
2 *897:io_in[5] 0.000431886
3 *33:25 0.00228676
4 *33:23 0.00185488
5 *33:21 0.0275661
6 *33:19 0.0276254
7 *33:13 0.0191141
8 *33:11 0.0190547
9 *33:9 0.0358322
10 *33:7 0.0366721
11 *897:io_in[5] *897:io_in[6] 0
12 *33:9 *34:9 0.000694718
13 *33:9 *105:33 0.0252774
14 *33:9 *109:25 0.0217168
15 *33:9 *111:31 0.158586
16 *33:9 *528:11 0
17 *33:13 *34:13 0.0225943
18 *33:13 *37:9 0.11449
19 *33:13 *38:9 2.14757e-05
20 *33:13 *869:13 0.00607847
21 *33:21 *37:17 0.0577065
22 *33:21 *38:17 0.0611225
23 *33:21 *66:13 0
24 *33:21 *569:17 0.0146719
25 *33:21 *629:14 0.0300116
26 *33:21 *869:13 0.00239934
27 *33:21 *872:13 0.00024111
28 *33:21 *887:15 0.000515187
29 *33:25 *34:25 0.00135558
30 *33:25 *37:21 0
31 *33:25 *42:21 0.00521596
32 *897:io_in[4] *897:io_in[5] 0
33 *31:9 *33:9 0.00685453
34 *31:23 *33:25 0.0072345
35 *32:9 *33:9 0.179828
36 *32:13 *33:13 0.153953
*RES
1 io_in[12] *33:7 5.7036 
2 *33:7 *33:9 2440.69 
3 *33:9 *33:11 4.5 
4 *33:11 *33:13 1458.57 
5 *33:13 *33:19 8.79393 
6 *33:19 *33:21 197.293 
7 *33:21 *33:23 3.41 
8 *33:23 *33:25 97.875 
9 *33:25 *897:io_in[5] 4.26227 
*END

*D_NET *34 1.16928
*CONN
*P io_in[13] I
*I *897:io_in[6] I *D soc_sys
*CAP
1 io_in[13] 0.000879926
2 *897:io_in[6] 0.00033842
3 *34:25 0.00217138
4 *34:23 0.00183296
5 *34:21 0.00718627
6 *34:19 0.00735099
7 *34:13 0.0327113
8 *34:11 0.0325466
9 *34:9 0.0337769
10 *34:7 0.0346568
11 *897:io_in[6] *897:io_in[7] 0
12 *34:9 *35:9 0.218448
13 *34:9 *109:25 0.202116
14 *34:9 *111:31 0.0081476
15 *34:13 *35:13 0.236535
16 *34:13 *37:9 0.178112
17 *34:13 *38:17 0.0218387
18 *34:13 *869:13 0.0056199
19 *34:21 *35:23 0.00412903
20 *34:21 *36:19 0.00703196
21 *34:21 *37:17 0.0384897
22 *34:21 *609:16 0.0146047
23 *34:25 *35:25 0.00819362
24 *34:25 *42:21 0.00550601
25 *897:io_in[5] *897:io_in[6] 0
26 *31:9 *34:9 0.0392378
27 *31:13 *34:21 0.00313201
28 *31:21 *34:21 8.65987e-06
29 *31:23 *34:25 3.06986e-05
30 *33:9 *34:9 0.000694718
31 *33:13 *34:13 0.0225943
32 *33:25 *34:25 0.00135558
*RES
1 io_in[13] *34:7 5.9198 
2 *34:7 *34:9 2677.47 
3 *34:9 *34:11 4.5 
4 *34:11 *34:13 2236.88 
5 *34:13 *34:19 10.6154 
6 *34:19 *34:21 60.3668 
7 *34:21 *34:23 3.41 
8 *34:23 *34:25 102.732 
9 *34:25 *897:io_in[6] 4.11813 
*END

*D_NET *35 1.12092
*CONN
*P io_in[14] I
*I *897:io_in[7] I *D soc_sys
*CAP
1 io_in[14] 0.000890416
2 *897:io_in[7] 0.000271399
3 *35:25 0.00212601
4 *35:23 0.00637013
5 *35:19 0.00479317
6 *35:13 0.0344875
7 *35:11 0.0342098
8 *35:9 0.0898996
9 *35:7 0.09079
10 *897:io_in[7] *897:io_in[8] 0
11 *897:io_in[7] *143:37 8.22844e-05
12 *35:9 *111:31 0.00756691
13 *35:9 *528:11 0
14 *35:13 *36:9 0.240485
15 *35:13 *38:17 0.0257424
16 *35:13 *869:13 0.00488536
17 *35:19 *609:20 5.39162e-05
18 *35:23 *36:19 0.0125316
19 *35:23 *66:13 0.0234943
20 *35:23 *609:16 6.8293e-05
21 *35:25 *36:21 0.00858019
22 *35:25 *42:21 0.000156713
23 *35:25 *542:38 0
24 *897:io_in[6] *897:io_in[7] 0
25 *31:9 *35:9 0.0619564
26 *31:13 *35:23 0.0040338
27 *31:21 *35:23 0.000141197
28 *34:9 *35:9 0.218448
29 *34:13 *35:13 0.236535
30 *34:21 *35:23 0.00412903
31 *34:25 *35:25 0.00819362
*RES
1 io_in[14] *35:7 5.99187 
2 *35:7 *35:9 2914.56 
3 *35:9 *35:11 4.5 
4 *35:11 *35:13 2365.84 
5 *35:13 *35:19 12.7404 
6 *35:19 *35:23 41.0037 
7 *35:23 *35:25 108.196 
8 *35:25 *897:io_in[7] 4.04607 
*END

*D_NET *36 0.747126
*CONN
*P io_in[15] I
*I *897:io_in[8] I *D soc_sys
*CAP
1 io_in[15] 0.148744
2 *897:io_in[8] 0.000231176
3 *36:21 0.00224133
4 *36:19 0.00469233
5 *36:9 0.0795076
6 *36:7 0.0768254
7 *36:5 0.148744
8 *897:io_in[8] *897:io_in[9] 0
9 *897:io_in[8] *143:37 7.2771e-05
10 *36:9 *39:29 0
11 *36:9 *852:11 0.000233389
12 *36:9 *856:15 0.00361599
13 *36:9 *869:13 0.000929309
14 *36:21 *40:37 0.000609577
15 *36:21 *42:21 9.83994e-05
16 *36:21 *542:38 0
17 *897:io_in[7] *897:io_in[8] 0
18 *31:13 *36:19 0.00224789
19 *32:21 *36:9 0.0023277
20 *32:25 *36:21 0.00737741
21 *34:21 *36:19 0.00703196
22 *35:13 *36:9 0.240485
23 *35:23 *36:19 0.0125316
24 *35:25 *36:21 0.00858019
*RES
1 io_in[15] *36:5 3061.12 
2 *36:5 *36:7 4.5 
3 *36:7 *36:9 2375.7 
4 *36:9 *36:19 35.4959 
5 *36:19 *36:21 111.232 
6 *36:21 *897:io_in[8] 3.974 
*END

*D_NET *37 0.840083
*CONN
*P io_in[16] I
*I *897:io_in[9] I *D soc_sys
*CAP
1 io_in[16] 0.146984
2 *897:io_in[9] 0.000557961
3 *37:21 0.00300106
4 *37:19 0.0024431
5 *37:17 0.0100323
6 *37:15 0.0101411
7 *37:9 0.0326914
8 *37:7 0.0325827
9 *37:5 0.146984
10 *897:io_in[9] *897:io_in[10] 0
11 *37:5 *67:73 0.00827591
12 *37:9 *38:17 0.0268776
13 *37:9 *869:13 0.00738112
14 *37:17 *38:17 4.51764e-05
15 *37:17 *585:17 0.00137363
16 *37:17 *594:15 0.00330079
17 *37:17 *609:16 0.00535073
18 *37:17 *629:14 2.63501e-05
19 *37:21 *38:21 0.00888436
20 *37:21 *42:21 0
21 *37:21 *103:31 0.00240229
22 *37:21 *107:9 0.000979501
23 *37:21 *114:9 1.37595e-05
24 *897:io_in[8] *897:io_in[9] 0
25 *31:21 *37:17 1.72675e-05
26 *31:23 *37:21 0.000937499
27 *33:13 *37:9 0.11449
28 *33:21 *37:17 0.0577065
29 *33:25 *37:21 0
30 *34:13 *37:9 0.178112
31 *34:21 *37:17 0.0384897
*RES
1 io_in[16] *37:5 3062.04 
2 *37:5 *37:7 4.5 
3 *37:7 *37:9 1684.05 
4 *37:9 *37:15 9.70464 
5 *37:15 *37:17 90.7789 
6 *37:17 *37:19 3.41 
7 *37:19 *37:21 113.054 
8 *37:21 *897:io_in[9] 4.55053 
*END

*D_NET *38 0.791538
*CONN
*P io_in[17] I
*I *897:io_in[10] I *D soc_sys
*CAP
1 io_in[17] 0.148896
2 *897:io_in[10] 0.00059401
3 *38:21 0.0036822
4 *38:19 0.00308819
5 *38:17 0.025526
6 *38:15 0.0255984
7 *38:9 0.0250047
8 *38:7 0.0249323
9 *38:5 0.148896
10 *897:io_in[10] *897:io_in[11] 0
11 *38:9 *871:13 0.0117235
12 *38:15 *871:9 0
13 *38:17 *110:13 0.000191891
14 *38:17 *569:17 0.0146671
15 *38:17 *869:13 0.00378058
16 *38:21 *39:41 0
17 *38:21 *44:29 0
18 *38:21 *74:31 0.00325991
19 *38:21 *107:9 0.000154447
20 *897:io_in[9] *897:io_in[10] 0
21 *32:13 *38:9 0.0822721
22 *32:19 *38:15 6.24939e-05
23 *32:21 *38:17 0.124677
24 *33:13 *38:9 2.14757e-05
25 *33:21 *38:17 0.0611225
26 *34:13 *38:17 0.0218387
27 *35:13 *38:17 0.0257424
28 *37:9 *38:17 0.0268776
29 *37:17 *38:17 4.51764e-05
30 *37:21 *38:21 0.00888436
*RES
1 io_in[17] *38:5 3062.95 
2 *38:5 *38:7 4.5 
3 *38:7 *38:9 773.089 
4 *38:9 *38:15 9.0975 
5 *38:15 *38:17 199.816 
6 *38:17 *38:19 3.41 
7 *38:19 *38:21 114.875 
8 *38:21 *897:io_in[10] 4.6226 
*END

*D_NET *39 0.614732
*CONN
*P io_in[18] I
*I *897:io_in[11] I *D soc_sys
*CAP
1 io_in[18] 0.00167365
2 *897:io_in[11] 0.000874559
3 *39:41 0.00304113
4 *39:39 0.00216657
5 *39:37 0.043239
6 *39:35 0.0432888
7 *39:29 0.0202085
8 *39:27 0.020591
9 *39:17 0.168224
10 *39:15 0.169465
11 *897:io_in[11] *897:io_in[12] 0
12 *39:15 *75:34 0.000770827
13 *39:15 *112:41 0.00156729
14 *39:27 *110:21 0.000121771
15 *39:29 *898:wbs_dat_i[11] 0.000521547
16 *39:29 *110:21 0
17 *39:29 *840:9 0
18 *39:29 *862:13 0.00586759
19 *39:29 *863:21 6.41738e-05
20 *39:29 *866:21 0
21 *39:29 *867:17 0
22 *39:29 *885:15 0.00355286
23 *39:35 *890:9 0
24 *39:37 *110:13 0.0397159
25 *39:37 *143:39 0
26 *39:37 *556:15 0.000142348
27 *39:37 *559:21 0.00539418
28 *39:37 *590:15 0.0420822
29 *39:37 *607:21 0.0212751
30 *39:37 *622:14 1.23383e-05
31 *39:37 *639:16 0.000149675
32 *39:37 *851:11 0.00287096
33 *39:37 *859:15 0.00164482
34 *39:41 io_out[37] 0.000465354
35 *39:41 *897:io_in[30] 0.000761567
36 *39:41 *43:37 0.00797713
37 *39:41 *44:29 0
38 *39:41 *109:9 0.0012078
39 *39:41 *110:9 0
40 *39:41 *113:9 0.00013198
41 *39:41 *118:19 0.005662
42 *897:io_in[10] *897:io_in[11] 0
43 *36:9 *39:29 0
44 *38:21 *39:41 0
*RES
1 io_in[18] *39:15 15.1607 
2 *39:15 *39:17 536.229 
3 *39:17 *39:27 14.6696 
4 *39:27 *39:29 449.857 
5 *39:29 *39:35 8.79393 
6 *39:35 *39:37 199.455 
7 *39:37 *39:39 3.41 
8 *39:39 *39:41 115.482 
9 *39:41 *897:io_in[11] 5.34327 
*END

*D_NET *40 0.698864
*CONN
*P io_in[19] I
*I *897:io_in[12] I *D soc_sys
*CAP
1 io_in[19] 0.00410917
2 *897:io_in[12] 0.000169071
3 *40:37 0.00361076
4 *40:35 0.00421365
5 *40:25 0.0246107
6 *40:23 0.0238387
7 *40:21 0.00715591
8 *40:19 0.00934002
9 *40:13 0.165869
10 *40:11 0.167794
11 *897:io_in[12] *897:io_in[13] 0
12 *40:11 *75:34 0.0122375
13 *40:11 *77:21 0.00467225
14 *40:11 *116:27 0.0134212
15 *40:13 *726:9 0.0336568
16 *40:13 *755:9 0
17 *40:13 *815:9 0.000552536
18 *40:13 *818:9 0.000976534
19 *40:13 *821:9 0.000630425
20 *40:13 *856:9 0.000552536
21 *40:19 *758:23 0.00148102
22 *40:19 *778:7 0.00490855
23 *40:19 *780:7 0.000582072
24 *40:21 *647:25 0
25 *40:21 *665:9 0.000253431
26 *40:21 *762:15 0.000248178
27 *40:21 *770:9 0.000740641
28 *40:21 *772:9 0.000546694
29 *40:21 *826:21 0.00571576
30 *40:25 *43:25 0
31 *40:25 *104:22 0.00638877
32 *40:25 *109:21 0
33 *40:25 *112:33 0.110495
34 *40:25 *540:50 0.0181413
35 *40:25 *646:22 0.055553
36 *40:35 *104:22 0.00379716
37 *40:35 *107:21 6.1887e-05
38 *40:35 *112:31 0.000760559
39 *40:35 *112:33 0.00119076
40 *40:35 *118:43 0.000238636
41 *40:35 *542:36 0.00029686
42 *40:35 *644:17 0.00287003
43 *40:37 *42:21 0
44 *40:37 *104:18 0
45 *40:37 *118:11 0
46 *40:37 *142:16 0.00102775
47 *897:io_in[11] *897:io_in[12] 0
48 *32:25 *40:37 0.00554536
49 *36:21 *40:37 0.000609577
*RES
1 io_in[19] *40:11 42.4421 
2 *40:11 *40:13 498.41 
3 *40:13 *40:19 15.0466 
4 *40:19 *40:21 194.866 
5 *40:21 *40:23 4.5 
6 *40:23 *40:25 1052.38 
7 *40:25 *40:35 18.1298 
8 *40:35 *40:37 97.2679 
9 *40:37 *897:io_in[12] 3.82987 
*END

*D_NET *42 0.590747
*CONN
*P io_in[20] I
*I *897:io_in[13] I *D soc_sys
*CAP
1 io_in[20] 0.00168675
2 *897:io_in[13] 0.000343935
3 *42:21 0.00231831
4 *42:19 0.00197437
5 *42:17 0.0448009
6 *42:15 0.0448009
7 *42:13 0.134318
8 *42:11 0.136005
9 *897:io_in[13] *897:io_in[14] 0
10 *42:11 *75:34 0.00538501
11 *42:11 *116:27 0.00947668
12 *42:13 *685:9 0
13 *42:13 *692:9 0
14 *42:13 *695:9 0.068128
15 *42:13 *707:9 8.17003e-05
16 *42:13 *715:9 0
17 *42:13 *728:9 0
18 *42:13 *854:9 0.00733372
19 *42:13 *857:9 0
20 *42:13 *890:9 0
21 *42:17 *103:35 0.121159
22 *42:17 *108:13 0.000794669
23 *42:21 *114:9 0.00116346
24 *897:io_in[12] *897:io_in[13] 0
25 *33:25 *42:21 0.00521596
26 *34:25 *42:21 0.00550601
27 *35:25 *42:21 0.000156713
28 *36:21 *42:21 9.83994e-05
29 *37:21 *42:21 0
30 *40:37 *42:21 0
*RES
1 io_in[20] *42:11 23.4525 
2 *42:11 *42:13 3028.55 
3 *42:13 *42:15 3.41 
4 *42:15 *42:17 197.221 
5 *42:17 *42:19 3.41 
6 *42:19 *42:21 94.2321 
7 *42:21 *897:io_in[13] 4.1902 
*END

*D_NET *43 0.532223
*CONN
*P io_in[21] I
*I *897:io_in[14] I *D soc_sys
*CAP
1 io_in[21] 0.00216152
2 *897:io_in[14] 0.000916118
3 *43:37 0.00235403
4 *43:35 0.00143791
5 *43:33 0.00935832
6 *43:31 0.00954204
7 *43:25 0.00816579
8 *43:23 0.00807116
9 *43:13 0.166095
10 *43:11 0.168168
11 *897:io_in[14] *897:io_in[15] 0
12 *43:11 *75:34 0.0135223
13 *43:11 *80:26 0.0135223
14 *43:13 *551:21 0
15 *43:13 *584:21 0.00443992
16 *43:23 *649:25 0.00037464
17 *43:23 *650:45 0.000382342
18 *43:25 *109:21 0.0272742
19 *43:25 *646:22 0.000702743
20 *43:25 *650:45 0.00576753
21 *43:33 *44:25 0.0119486
22 *43:33 *109:21 0.000558627
23 *43:33 *113:13 4.59737e-05
24 *43:33 *114:27 0.00433923
25 *43:33 *540:19 0.00122656
26 *43:33 *541:27 0.02694
27 *43:33 *575:17 0.00373607
28 *43:33 *640:17 0.00785577
29 *43:33 *651:41 0.0146374
30 *43:37 io_out[37] 0.000571658
31 *43:37 *897:io_in[30] 0.000917844
32 *43:37 *109:9 0.000341758
33 *43:37 *113:9 0.00887087
34 *897:io_in[13] *897:io_in[14] 0
35 *39:41 *43:37 0.00797713
36 *40:25 *43:25 0
*RES
1 io_in[21] *43:11 30.4376 
2 *43:11 *43:13 532.714 
3 *43:13 *43:23 12.4879 
4 *43:23 *43:25 256.411 
5 *43:25 *43:31 10.6154 
6 *43:31 *43:33 66.3483 
7 *43:33 *43:35 3.41 
8 *43:35 *43:37 108.804 
9 *43:37 *897:io_in[14] 5.41533 
*END

*D_NET *44 0.513805
*CONN
*P io_in[22] I
*I *897:io_in[15] I *D soc_sys
*CAP
1 io_in[22] 0.000240373
2 *897:io_in[15] 0.000705927
3 *44:29 0.00347085
4 *44:27 0.00276492
5 *44:25 0.0106813
6 *44:23 0.0106813
7 *44:21 0.049059
8 *44:19 0.0493056
9 *44:13 0.100725
10 *44:11 0.100719
11 *897:io_in[15] *897:io_in[16] 0
12 *44:11 *75:34 0.000752727
13 *44:11 *80:26 0.000752727
14 *44:13 *894:finetune 0.00018768
15 *44:13 *749:17 0
16 *44:19 *69:21 0.00020458
17 *44:19 *774:22 0
18 *44:21 *545:15 0
19 *44:21 *578:21 0
20 *44:21 *748:17 0.0624493
21 *44:21 *749:17 0.0204839
22 *44:25 *65:21 0.0497881
23 *44:25 *113:13 7.66796e-06
24 *44:25 *575:17 0.00373938
25 *44:25 *651:41 0.0232883
26 *44:29 *74:31 0.000970609
27 *44:29 *107:17 2.46867e-05
28 *44:29 *108:9 0.00851082
29 *44:29 *109:9 0
30 *44:29 *112:21 0.000116652
31 *44:29 *118:19 0
32 *44:29 *143:19 0.00222676
33 *897:io_in[14] *897:io_in[15] 0
34 *38:21 *44:29 0
35 *39:41 *44:29 0
36 *43:33 *44:25 0.0119486
*RES
1 io_in[22] *44:11 10.4751 
2 *44:11 *44:13 320.393 
3 *44:13 *44:19 7.7318 
4 *44:19 *44:21 213.114 
5 *44:21 *44:23 3.41 
6 *44:23 *44:25 79.6446 
7 *44:25 *44:27 3.41 
8 *44:27 *44:29 113.661 
9 *44:29 *897:io_in[15] 4.91087 
*END

*D_NET *45 0.363299
*CONN
*P io_in[23] I
*I *897:io_in[16] I *D soc_sys
*CAP
1 io_in[23] 0.00650728
2 *897:io_in[16] 0.000697154
3 *45:49 0.0032457
4 *45:47 0.00364402
5 *45:33 0.00324415
6 *45:31 0.00342824
7 *45:21 0.126164
8 *45:19 0.129606
9 *45:11 0.0112296
10 *897:io_in[16] *897:io_in[17] 0
11 *45:21 *46:35 0
12 *45:21 *87:25 0
13 *45:21 *88:6 0.00285531
14 *45:21 *89:27 0.0212349
15 *45:21 *123:17 0.00943377
16 *45:31 *46:35 0.00141766
17 *45:31 *76:57 0.000389421
18 *45:31 *87:25 0.000157561
19 *45:31 *91:11 0.000597246
20 *45:33 *46:35 0.00204954
21 *45:33 *46:43 0.00687858
22 *45:33 *50:19 0.000929648
23 *45:33 *76:35 0.000721858
24 *45:33 *82:9 0.0018804
25 *45:33 *91:11 0.000370307
26 *45:33 *93:17 0.000450287
27 *45:47 *53:31 0.00252483
28 *45:47 *57:19 0.00252389
29 *45:47 *76:35 1.95291e-05
30 *45:47 *131:7 0.000126985
31 *45:47 *132:7 0.000126985
32 *45:49 io_oeb[36] 0.000651982
33 *45:49 *897:io_in[28] 0.00126085
34 *45:49 *49:19 0
35 *45:49 *74:23 0.00553574
36 *45:49 *74:31 0.000934485
37 *45:49 *98:17 0.000306651
38 *45:49 *103:15 0.00252433
39 *45:49 *108:9 0.00563082
40 *45:49 *143:19 0.00399909
41 *897:io_in[15] *897:io_in[16] 0
*RES
1 io_in[23] *45:11 39.2293 
2 *45:11 *45:19 36.9117 
3 *45:19 *45:21 2569.55 
4 *45:21 *45:31 41.1578 
5 *45:31 *45:33 110.357 
6 *45:33 *45:47 46.6556 
7 *45:47 *45:49 147.661 
8 *45:49 *897:io_in[16] 4.91087 
*END

*D_NET *46 0.426474
*CONN
*P io_in[24] I
*I *897:io_in[17] I *D soc_sys
*CAP
1 io_in[24] 0.000207661
2 *897:io_in[17] 0.00124576
3 *46:51 0.0035648
4 *46:49 0.00333814
5 *46:43 0.00523625
6 *46:41 0.00427554
7 *46:35 0.0485072
8 *46:33 0.0486833
9 *46:27 0.0095668
10 *46:25 0.00965179
11 *46:19 0.00926064
12 *46:17 0.00918878
13 *46:11 0.0116056
14 *46:9 0.0115656
15 *897:io_in[17] io_oeb[36] 0.000296678
16 *897:io_in[17] *897:io_in[18] 0
17 *897:io_in[17] *897:io_in[22] 9.25927e-05
18 *897:io_in[17] *74:31 0.00124298
19 *897:io_in[17] *143:19 0.00124503
20 *46:11 io_out[24] 0.000204598
21 *46:11 *47:11 0.00509353
22 *46:11 *122:25 0.0239035
23 *46:19 *83:19 0
24 *46:19 *122:17 0
25 *46:25 *47:17 7.30149e-05
26 *46:27 *83:19 0.0228108
27 *46:35 *50:19 0.0511635
28 *46:35 *82:9 0.00483708
29 *46:35 *83:19 0
30 *46:35 *87:25 0.0823566
31 *46:35 *87:33 0.00507373
32 *46:35 *91:11 0.000811333
33 *46:35 *127:17 0.0231966
34 *46:41 io_oeb[34] 3.68027e-05
35 *46:41 *94:15 3.68027e-05
36 *46:43 *50:19 0
37 *46:43 *76:35 4.94506e-05
38 *46:43 *88:6 0.000115619
39 *46:43 *89:17 0.000501861
40 *46:43 *91:11 0.00010385
41 *46:43 *93:17 0.000250313
42 *46:43 *129:27 0.000442552
43 *46:43 *133:15 0.000498714
44 *46:49 *127:7 0.000196888
45 *46:49 *129:27 8.59477e-05
46 *46:49 *130:7 0
47 *46:51 *51:25 0.00942084
48 *46:51 *103:23 0.00595168
49 *46:51 *110:9 0.00013751
50 *897:io_in[16] *897:io_in[17] 0
51 *45:21 *46:35 0
52 *45:31 *46:35 0.00141766
53 *45:33 *46:35 0.00204954
54 *45:33 *46:43 0.00687858
*RES
1 io_in[24] *46:9 4.05077 
2 *46:9 *46:11 48.8683 
3 *46:11 *46:17 7.47957 
4 *46:17 *46:19 184.089 
5 *46:19 *46:25 7.58767 
6 *46:25 *46:27 284.268 
7 *46:27 *46:33 7.37147 
8 *46:33 *46:35 1762.66 
9 *46:35 *46:41 7.01113 
10 *46:41 *46:43 127.018 
11 *46:43 *46:49 9.029 
12 *46:49 *46:51 118.518 
13 *46:51 *897:io_in[17] 27.9462 
*END

*D_NET *47 0.370078
*CONN
*P io_in[25] I
*I *897:io_in[18] I *D soc_sys
*CAP
1 io_in[25] 0.000240514
2 *897:io_in[18] 0.000524954
3 *47:41 0.00561129
4 *47:39 0.0127012
5 *47:19 0.0640219
6 *47:17 0.056559
7 *47:11 0.0116933
8 *47:9 0.0117818
9 *897:io_in[18] *897:io_in[19] 0
10 *47:11 *48:11 0.00527025
11 *47:11 *85:30 0.00519434
12 *47:11 *122:25 0.000179499
13 *47:19 io_oeb[27] 0.00140235
14 *47:19 *48:27 0.0441693
15 *47:19 *49:17 0.00201132
16 *47:19 *49:19 0
17 *47:19 *50:11 0.00834367
18 *47:19 *53:19 0.00415775
19 *47:19 *54:13 0.00422159
20 *47:19 *55:11 0.00195406
21 *47:19 *57:11 0.00117453
22 *47:19 *83:19 0
23 *47:19 *84:26 0.0882153
24 *47:19 *85:22 8.67458e-05
25 *47:19 *93:27 0.00933895
26 *47:19 *122:17 0
27 *47:19 *123:9 3.04851e-05
28 *47:19 *124:9 0
29 *47:39 *76:51 4.86533e-05
30 *47:39 *76:57 0
31 *47:39 *78:7 0.000119155
32 *47:39 *80:20 5.39208e-05
33 *47:39 *81:12 0.000316329
34 *47:39 *82:15 0.00014332
35 *47:39 *84:24 0.000100528
36 *47:39 *85:20 0.000854869
37 *47:39 *88:6 0
38 *47:39 *123:15 0.00136275
39 *47:39 *131:23 4.95909e-06
40 *47:41 *49:19 0.0159177
41 *47:41 *57:19 0
42 *47:41 *73:17 0.000206049
43 *47:41 *74:31 0.00032891
44 *47:41 *107:9 0.00466579
45 *47:41 *114:9 0.000698251
46 *47:41 *122:9 0.00120559
47 *897:io_in[17] *897:io_in[18] 0
48 *46:11 *47:11 0.00509353
49 *46:25 *47:17 7.30149e-05
*RES
1 io_in[25] *47:9 4.01943 
2 *47:9 *47:11 52.0353 
3 *47:11 *47:17 7.26337 
4 *47:17 *47:19 1983.66 
5 *47:19 *47:39 38.0612 
6 *47:39 *47:41 206.554 
7 *47:41 *897:io_in[18] 4.55053 
*END

*D_NET *48 0.381736
*CONN
*P io_in[26] I
*I *897:io_in[19] I *D soc_sys
*CAP
1 io_in[26] 0.000260035
2 *897:io_in[19] 0.00112295
3 *48:43 0.00365388
4 *48:41 0.00274261
5 *48:35 0.00197849
6 *48:33 0.00210438
7 *48:27 0.0102975
8 *48:25 0.0101323
9 *48:19 0.00878807
10 *48:17 0.00874882
11 *48:11 0.039594
12 *48:9 0.0397209
13 *897:io_in[19] *897:io_in[20] 0
14 *897:io_in[19] *897:io_in[22] 8.56965e-05
15 *897:io_in[19] *107:9 0.00112476
16 *897:io_in[19] *114:9 0.00112335
17 *48:9 *122:23 0
18 *48:11 io_oeb[27] 0
19 *48:11 *49:17 0.0010941
20 *48:11 *50:11 0.00460273
21 *48:11 *53:19 0.00153215
22 *48:11 *54:13 0.000573115
23 *48:11 *84:26 0.00313068
24 *48:11 *85:30 0.103112
25 *48:11 *130:17 0.000263466
26 *48:17 io_out[31] 1.52655e-05
27 *48:19 *84:26 0.00249496
28 *48:19 *85:22 0.0181902
29 *48:19 *122:17 0
30 *48:19 *130:17 0.00558769
31 *48:27 *49:19 0.0170705
32 *48:27 *55:11 0.00710482
33 *48:27 *57:11 0.00402706
34 *48:27 *76:53 0.00381335
35 *48:27 *78:9 0.00274371
36 *48:27 *123:9 0.000251367
37 *48:33 *78:9 0.000403461
38 *48:33 *83:15 0.00069499
39 *48:33 *123:9 0.000216276
40 *48:35 *49:19 0.00143443
41 *48:35 *57:11 0.000327121
42 *48:35 *78:9 0.00160162
43 *48:35 *83:15 0.00136498
44 *48:35 *87:15 0.000900964
45 *48:35 *103:15 5.7986e-05
46 *48:35 *123:9 0.000386284
47 *48:35 *133:17 0.00227391
48 *48:41 *133:15 0.000117739
49 *48:41 *136:7 0.000103374
50 *48:43 io_out[37] 0.00013668
51 *48:43 *897:io_in[26] 0.00227246
52 *48:43 *98:17 0.00161086
53 *48:43 *109:9 0.00216832
54 *48:43 *113:9 0.00202018
55 *48:43 *116:21 0.000135968
56 *48:43 *121:9 0.0009963
57 *48:43 *124:9 0.000823677
58 *48:43 *127:9 0.00245855
59 *48:43 *130:9 0.00187262
60 *48:43 *136:9 0.000832713
61 *897:io_in[18] *897:io_in[19] 0
62 *47:11 *48:11 0.00527025
63 *47:19 *48:27 0.0441693
*RES
1 io_in[26] *48:9 3.98183 
2 *48:9 *48:11 215.244 
3 *48:11 *48:17 7.11923 
4 *48:17 *48:19 277.589 
5 *48:19 *48:25 7.22733 
6 *48:25 *48:27 596.946 
7 *48:27 *48:33 14.5536 
8 *48:33 *48:35 93.0179 
9 *48:35 *48:41 7.37147 
10 *48:41 *48:43 140.375 
11 *48:43 *897:io_in[19] 26.2996 
*END

*D_NET *49 0.242854
*CONN
*P io_in[27] I
*I *897:io_in[20] I *D soc_sys
*CAP
1 io_in[27] 0.00699554
2 *897:io_in[20] 0.000587696
3 *49:19 0.0827381
4 *49:17 0.0891459
5 *897:io_in[20] *897:io_in[21] 0
6 *49:17 io_oeb[27] 0
7 *49:17 *84:26 0.002088
8 *49:17 *124:17 0.000322558
9 *49:19 *73:17 0.00238083
10 *49:19 *74:31 0.00527365
11 *49:19 *78:9 0.00983999
12 *49:19 *83:19 0
13 *49:19 *86:13 0.000664064
14 *49:19 *98:15 0.00198314
15 *49:19 *103:15 0.00330658
16 *897:io_in[19] *897:io_in[20] 0
17 *45:49 *49:19 0
18 *47:19 *49:17 0.00201132
19 *47:19 *49:19 0
20 *47:41 *49:19 0.0159177
21 *48:11 *49:17 0.0010941
22 *48:27 *49:19 0.0170705
23 *48:35 *49:19 0.00143443
*RES
1 io_in[27] *49:17 31.5398 
2 *49:17 *49:19 2012.2 
3 *49:19 *897:io_in[20] 4.6226 
*END

*D_NET *50 0.304512
*CONN
*P io_in[28] I
*I *897:io_in[21] I *D soc_sys
*CAP
1 io_in[28] 0.000603839
2 *897:io_in[21] 0.000199131
3 *50:19 0.0334781
4 *50:17 0.033758
5 *50:11 0.0260818
6 *50:9 0.0262065
7 *897:io_in[21] *897:io_in[22] 0
8 *50:9 *124:17 0.000322558
9 *50:11 *53:19 6.72288e-05
10 *50:11 *84:26 0.00862762
11 *50:17 *53:19 0.000113712
12 *50:19 *53:23 0
13 *50:19 *53:31 9.96517e-05
14 *50:19 *54:19 0.0756313
15 *50:19 *76:35 0.00113446
16 *50:19 *82:9 0.00823467
17 *50:19 *83:19 0
18 *50:19 *91:11 0.000539161
19 *50:19 *111:21 0.00074035
20 *50:19 *112:15 0.00116854
21 *50:19 *114:9 0
22 *50:19 *118:11 0
23 *50:19 *127:17 0.0207407
24 *50:19 *129:27 0.00128491
25 *50:19 *133:15 0.000440213
26 *897:io_in[20] *897:io_in[21] 0
27 *45:33 *50:19 0.000929648
28 *46:35 *50:19 0.0511635
29 *46:43 *50:19 0
30 *47:19 *50:11 0.00834367
31 *48:11 *50:11 0.00460273
*RES
1 io_in[28] *50:9 4.77143 
2 *50:9 *50:11 81.3319 
3 *50:11 *50:17 7.8399 
4 *50:17 *50:19 1423.88 
5 *50:19 *897:io_in[21] 3.90193 
*END

*D_NET *51 0.216683
*CONN
*P io_in[29] I
*I *897:io_in[22] I *D soc_sys
*CAP
1 io_in[29] 0.00323384
2 *897:io_in[22] 0.00098647
3 *51:25 0.00420224
4 *51:23 0.00653138
5 *51:11 0.0816823
6 *51:9 0.0816005
7 *897:io_in[22] *897:io_in[23] 0
8 *51:11 *897:wb_rst_i 0.000153096
9 *51:11 *76:51 0.00108896
10 *51:11 *80:20 0
11 *51:11 *131:25 0
12 *51:23 *85:20 0.00054984
13 *51:23 *87:15 0
14 *51:23 *98:15 0
15 *51:23 *121:23 0.000991966
16 *51:23 *131:23 9.08957e-06
17 *51:25 io_out[35] 0.000958382
18 *51:25 io_out[37] 0.000375731
19 *51:25 *897:io_in[26] 0.000537113
20 *51:25 *110:9 0.00445128
21 *51:25 *122:17 0.00703196
22 *51:25 *131:9 0.00826959
23 *51:25 *133:29 0.000584448
24 *51:25 *136:9 0.00384611
25 *897:io_in[17] *897:io_in[22] 9.25927e-05
26 *897:io_in[19] *897:io_in[22] 8.56965e-05
27 *897:io_in[21] *897:io_in[22] 0
28 *46:51 *51:25 0.00942084
*RES
1 io_in[29] *51:9 12.0909 
2 *51:9 *51:11 250.507 
3 *51:11 *51:23 10.3748 
4 *51:23 *51:25 225.375 
5 *51:25 *897:io_in[22] 5.7036 
*END

*D_NET *53 0.22322
*CONN
*P io_in[30] I
*I *897:io_in[23] I *D soc_sys
*CAP
1 io_in[30] 0.0146583
2 *897:io_in[23] 0.000310172
3 *53:31 0.0046366
4 *53:29 0.00442961
5 *53:23 0.0280167
6 *53:21 0.0279135
7 *53:19 0.0146583
8 *897:io_in[23] *897:io_in[24] 0
9 *53:19 *84:26 0.00288809
10 *53:23 *54:19 0
11 *53:23 *55:19 0.00472022
12 *53:23 *72:9 0.00717399
13 *53:23 *73:17 0.000352893
14 *53:23 *83:19 0.0759273
15 *53:29 *92:7 1.16796e-05
16 *53:31 *54:19 0.000156713
17 *53:31 *55:19 0.017992
18 *53:31 *57:19 0.00498287
19 *53:31 *72:9 0.00549283
20 *53:31 *114:9 0.000403053
21 *897:io_in[22] *897:io_in[23] 0
22 *45:47 *53:31 0.00252483
23 *47:19 *53:19 0.00415775
24 *48:11 *53:19 0.00153215
25 *50:11 *53:19 6.72288e-05
26 *50:17 *53:19 0.000113712
27 *50:19 *53:23 0
28 *50:19 *53:31 9.96517e-05
*RES
1 io_in[30] *53:19 49.2203 
2 *53:19 *53:21 3.41 
3 *53:21 *53:23 955.161 
4 *53:23 *53:29 7.01113 
5 *53:29 *53:31 232.661 
6 *53:31 *897:io_in[23] 4.11813 
*END

*D_NET *54 0.197595
*CONN
*P io_in[31] I
*I *897:io_in[24] I *D soc_sys
*CAP
1 io_in[31] 0.0120749
2 *897:io_in[24] 0.000241864
3 *54:19 0.0230971
4 *54:17 0.0233281
5 *54:13 0.0125477
6 *897:io_in[24] *897:io_in[25] 0
7 *54:13 *55:11 0.000107335
8 *54:13 *84:26 0.00110021
9 *54:13 *124:17 0.000246133
10 *54:13 *130:17 0.0054584
11 *54:17 *55:9 5.592e-05
12 *54:19 *55:19 0.0387548
13 *897:io_in[23] *897:io_in[24] 0
14 *47:19 *54:13 0.00422159
15 *48:11 *54:13 0.000573115
16 *50:19 *54:19 0.0756313
17 *53:23 *54:19 0
18 *53:31 *54:19 0.000156713
*RES
1 io_in[31] *54:13 49.2438 
2 *54:13 *54:17 4.35783 
3 *54:17 *54:19 944.232 
4 *54:19 *897:io_in[24] 3.974 
*END

*D_NET *55 0.164948
*CONN
*P io_in[32] I
*I *897:io_in[25] I *D soc_sys
*CAP
1 io_in[32] 0.000683215
2 *897:io_in[25] 0.000279053
3 *55:19 0.00932439
4 *55:17 0.00943003
5 *55:11 0.0267905
6 *55:9 0.027089
7 *897:io_in[25] *897:io_in[26] 0
8 *55:9 *124:17 0.000322558
9 *55:11 *93:27 0.0154025
10 *55:11 *130:17 0.00114663
11 *55:19 *72:9 0.00379047
12 *897:io_in[24] *897:io_in[25] 0
13 *47:19 *55:11 0.00195406
14 *48:27 *55:11 0.00710482
15 *53:23 *55:19 0.00472022
16 *53:31 *55:19 0.017992
17 *54:13 *55:11 0.000107335
18 *54:17 *55:9 5.592e-05
19 *54:19 *55:19 0.0387548
*RES
1 io_in[32] *55:9 4.91557 
2 *55:9 *55:11 80.2666 
3 *55:11 *55:17 7.55163 
4 *55:17 *55:19 484.625 
5 *55:19 *897:io_in[25] 4.04607 
*END

*D_NET *56 0.119589
*CONN
*P io_in[33] I
*I *897:io_in[26] I *D soc_sys
*CAP
1 io_in[33] 0.00634391
2 *897:io_in[26] 0.0115101
3 *56:15 0.0429005
4 *56:13 0.0377342
5 *897:io_in[26] io_out[36] 0.0013731
6 *897:io_in[26] *897:io_in[27] 0
7 *897:io_in[26] *897:io_in[29] 0.00396595
8 *897:io_in[26] *897:io_in[30] 0.000114258
9 *897:io_in[26] *110:9 0.000432664
10 *897:io_in[26] *113:9 0.00203274
11 *897:io_in[26] *116:21 0.00221031
12 *897:io_in[26] *125:28 0.00211399
13 *897:io_in[26] *136:9 0.000601102
14 *56:15 *126:20 0
15 *56:15 *542:28 9.27738e-06
16 *56:15 *576:13 0.00543696
17 *897:io_in[25] *897:io_in[26] 0
18 *48:43 *897:io_in[26] 0.00227246
19 *51:25 *897:io_in[26] 0.000537113
*RES
1 io_in[33] *56:13 20.9394 
2 *56:13 *56:15 104.769 
3 *56:15 *897:io_in[26] 49.9246 
*END

*D_NET *57 0.0812093
*CONN
*P io_in[34] I
*I *897:io_in[27] I *D soc_sys
*CAP
1 io_in[34] 0.000513272
2 *897:io_in[27] 0.000386622
3 *57:19 0.00516843
4 *57:17 0.00507006
5 *57:11 0.0134047
6 *57:9 0.0136297
7 *897:io_in[27] *142:16 5.9504e-05
8 *57:11 io_oeb[34] 0.00018037
9 *57:11 *76:53 0.00077358
10 *57:11 *83:15 0.000370834
11 *57:11 *87:15 0.000123605
12 *57:11 *93:27 0.0096672
13 *57:11 *97:15 0.00219608
14 *57:11 *132:17 0.00523601
15 *57:17 *58:19 1.27131e-05
16 *57:17 *83:15 0.000111033
17 *57:19 *72:9 0.00292552
18 *57:19 *73:17 0.000724674
19 *57:19 *114:9 0.00407865
20 *57:19 *122:9 0.00354117
21 *897:io_in[26] *897:io_in[27] 0
22 *45:47 *57:19 0.00252389
23 *47:19 *57:11 0.00117453
24 *47:41 *57:19 0
25 *48:27 *57:11 0.00402706
26 *48:35 *57:11 0.000327121
27 *53:31 *57:19 0.00498287
*RES
1 io_in[34] *57:9 4.45183 
2 *57:9 *57:11 50.2242 
3 *57:11 *57:17 7.47957 
4 *57:17 *57:19 185.911 
5 *57:19 *897:io_in[27] 4.26227 
*END

*D_NET *58 0.0466018
*CONN
*P io_in[35] I
*I *897:io_in[28] I *D soc_sys
*CAP
1 io_in[35] 0.00523688
2 *897:io_in[28] 0.00485034
3 *58:19 0.0100872
4 *897:io_in[28] io_oeb[36] 0.00922407
5 *897:io_in[28] io_out[36] 0.00476947
6 *897:io_in[28] *897:io_in[29] 1.49122e-05
7 *897:io_in[28] *897:io_in[30] 3.36948e-05
8 *897:io_in[28] *74:23 0.000806669
9 *897:io_in[28] *97:15 0.000501179
10 *897:io_in[28] *98:17 0.0012807
11 *897:io_in[28] *108:9 0.000320474
12 *897:io_in[28] *123:9 0.000187857
13 *897:io_in[28] *142:16 0.000140991
14 *58:19 *73:15 0.00133827
15 *58:19 *83:15 1.19034e-05
16 *58:19 *97:15 0.00283858
17 *58:19 *123:9 0.000171395
18 *58:19 *133:17 0.00100133
19 *58:19 *133:29 0.00251232
20 *45:49 *897:io_in[28] 0.00126085
21 *57:17 *58:19 1.27131e-05
*RES
1 io_in[35] *58:19 32.3184 
2 *58:19 *897:io_in[28] 25.464 
*END

*D_NET *59 0.0114027
*CONN
*P io_in[36] I
*I *897:io_in[29] I *D soc_sys
*CAP
1 io_in[36] 0.00306439
2 *897:io_in[29] 0.00306439
3 *897:io_in[29] io_out[36] 0.000563329
4 *897:io_in[29] *897:io_in[30] 0.000322942
5 *897:io_in[29] *112:15 0.000367674
6 *897:io_in[29] *143:17 3.90851e-05
7 *897:io_in[26] *897:io_in[29] 0.00396595
8 *897:io_in[28] *897:io_in[29] 1.49122e-05
*RES
1 io_in[36] *897:io_in[29] 19.3659 
*END

*D_NET *60 0.0290975
*CONN
*P io_in[37] I
*I *897:io_in[30] I *D soc_sys
*CAP
1 io_in[37] 0.00658884
2 *897:io_in[30] 0.00658884
3 *897:io_in[30] io_oeb[36] 9.01829e-05
4 *897:io_in[30] io_out[36] 1.42542e-05
5 *897:io_in[30] io_out[37] 0.0101693
6 *897:io_in[30] *897:io_in[0] 0
7 *897:io_in[30] *107:17 0.000100832
8 *897:io_in[30] *109:9 0.000842886
9 *897:io_in[30] *112:15 1.7976e-05
10 *897:io_in[30] *112:21 0.000339249
11 *897:io_in[30] *113:9 0.00131813
12 *897:io_in[30] *114:17 0.000519366
13 *897:io_in[30] *118:19 0.000144274
14 *897:io_in[30] *143:17 0.000213056
15 *897:io_in[26] *897:io_in[30] 0.000114258
16 *897:io_in[28] *897:io_in[30] 3.36948e-05
17 *897:io_in[29] *897:io_in[30] 0.000322942
18 *39:41 *897:io_in[30] 0.000761567
19 *43:37 *897:io_in[30] 0.000917844
*RES
1 io_in[37] *897:io_in[30] 30.6803 
*END

*D_NET *65 0.840166
*CONN
*P io_in[7] I
*I *897:io_in[0] I *D soc_sys
*CAP
1 io_in[7] 0.000257415
2 *897:io_in[0] 0.0045645
3 *65:21 0.0297651
4 *65:19 0.0252177
5 *65:13 0.0279307
6 *65:11 0.0279136
7 *65:9 0.0374539
8 *65:7 0.0377113
9 *897:io_in[0] io_out[37] 0
10 *897:io_in[0] *74:37 0
11 *897:io_in[0] *107:17 0.000822761
12 *897:io_in[0] *108:9 0.00089007
13 *897:io_in[0] *109:9 0.000465354
14 *897:io_in[0] *112:21 0.000760371
15 *897:io_in[0] *118:19 0.000465354
16 *65:9 *66:9 0.0421876
17 *65:9 *69:25 0.000424324
18 *65:9 *141:25 0.100823
19 *65:13 *898:wbs_adr_i[22] 0.000820948
20 *65:13 *898:wbs_dat_i[27] 0.000528373
21 *65:13 *113:21 0.105203
22 *65:13 *142:26 0.154534
23 *65:13 *847:11 0.00266697
24 *65:19 *844:17 9.60337e-06
25 *65:21 *898:wbs_adr_i[6] 0.000620144
26 *65:21 *113:13 0.000282512
27 *65:21 *142:18 0.123189
28 *65:21 *651:41 0.010987
29 *65:21 *657:25 0.0525544
30 *65:21 *794:19 0.000330158
31 *897:io_in[30] *897:io_in[0] 0
32 *24:9 *65:9 0.000998766
33 *44:25 *65:21 0.0497881
*RES
1 io_in[7] *65:7 3.82987 
2 *65:7 *65:9 1235.51 
3 *65:9 *65:11 4.5 
4 *65:11 *65:13 1463.09 
5 *65:13 *65:19 8.18679 
6 *65:19 *65:21 198.987 
7 *65:21 *897:io_in[0] 18.7721 
*END

*D_NET *66 0.820608
*CONN
*P io_in[8] I
*I *897:io_in[1] I *D soc_sys
*CAP
1 io_in[8] 0.000102774
2 *897:io_in[1] 0.0043697
3 *66:13 0.12255
4 *66:11 0.11818
5 *66:9 0.0585154
6 *66:7 0.0586182
7 *897:io_in[1] *67:265 0.000945287
8 *897:io_in[1] *104:18 0.000914176
9 *897:io_in[1] *141:11 0.00211632
10 *897:io_in[1] *143:37 1.4392e-05
11 *897:io_in[1] *542:38 0.000113898
12 *897:io_in[1] *575:11 0.000227797
13 *66:9 *69:25 1.708e-05
14 *66:9 *70:22 0.0835487
15 *66:9 *71:33 0.0214715
16 *66:9 *72:17 0.0204225
17 *66:9 *73:25 0.000365662
18 *66:9 *108:17 0.0182568
19 *66:9 *141:25 0.0230563
20 *66:9 *142:30 0.022082
21 *66:13 *557:11 7.69251e-06
22 *66:13 *570:13 0.00308133
23 *66:13 *574:17 0
24 *66:13 *581:15 0.030469
25 *66:13 *582:11 0.00826102
26 *66:13 *585:17 0.0075236
27 *66:13 *594:15 0.00936328
28 *66:13 *609:16 0.00232251
29 *66:13 *626:14 0.0105658
30 *66:13 *629:14 0.00303812
31 *66:13 *872:13 0.00918117
32 *66:13 *891:15 0.017429
33 *26:9 *66:9 0.000247229
34 *31:13 *66:13 0.0975476
35 *33:21 *66:13 0
36 *35:23 *66:13 0.0234943
37 *65:9 *66:9 0.0421876
*RES
1 io_in[8] *66:7 3.57763 
2 *66:7 *66:9 262.652 
3 *66:9 *66:11 3.41 
4 *66:11 *66:13 454.355 
5 *66:13 *897:io_in[1] 22.1013 
*END

*D_NET *67 0.61731
*CONN
*P io_in[9] I
*I *897:io_in[2] I *D soc_sys
*CAP
1 io_in[9] 0.00525097
2 *897:io_in[2] 0.000208309
3 *67:265 0.00213538
4 *67:263 0.00192707
5 *67:261 0.0255714
6 *67:259 0.0255714
7 *67:257 0.00246468
8 *67:255 0.003277
9 *67:249 0.00493667
10 *67:247 0.00483335
11 *67:243 0.00151513
12 *67:239 0.00171968
13 *67:231 0.00254718
14 *67:223 0.00427044
15 *67:217 0.00708529
16 *67:215 0.00652669
17 *67:207 0.00530323
18 *67:193 0.00803369
19 *67:191 0.00783869
20 *67:185 0.00646064
21 *67:183 0.00343063
22 *67:181 0.0273267
23 *67:179 0.029474
24 *67:175 0.00740305
25 *67:161 0.00930705
26 *67:159 0.00803891
27 *67:151 0.00650512
28 *67:143 0.00406282
29 *67:135 0.00876623
30 *67:127 0.0130558
31 *67:119 0.00959297
32 *67:105 0.00657542
33 *67:103 0.00395538
34 *67:97 0.0130942
35 *67:95 0.0126153
36 *67:89 0.0032014
37 *67:87 0.0041487
38 *67:81 0.00473936
39 *67:79 0.00529062
40 *67:73 0.00528102
41 *67:71 0.00586749
42 *67:57 0.00856489
43 *67:55 0.00992964
44 *67:51 0.0128377
45 *67:43 0.0109139
46 *67:39 0.00426342
47 *67:35 0.00464474
48 *67:23 0.00746474
49 *67:15 0.0101493
50 *67:97 io_out[16] 0
51 *67:207 *72:13 0
52 *67:207 *73:21 0.000273073
53 *67:207 *76:57 0.00450126
54 *67:207 *738:13 0
55 *67:215 *737:13 0.000436071
56 *67:217 *690:9 0.00255822
57 *67:217 *713:9 0
58 *67:217 *780:9 0.00107193
59 *67:217 *807:9 0.00305233
60 *67:223 *897:sram_dat_i[15] 0.00625155
61 *67:223 *796:7 0.00107684
62 *67:223 *865:7 0.00250869
63 *67:231 *897:sram_dat_i[6] 0.000744774
64 *67:231 *748:9 0.00112636
65 *67:231 *763:9 0
66 *67:231 *819:9 0.000440598
67 *67:231 *887:7 0.00074743
68 *67:239 *104:26 0.00205886
69 *67:239 *676:9 0.000715167
70 *67:239 *712:9 0.000462415
71 *67:243 *118:57 0.000786923
72 *67:243 *700:11 0.00199124
73 *67:243 *776:13 0.00140433
74 *67:247 *741:23 0.000507399
75 *67:249 *733:9 0
76 *67:249 *763:9 0
77 *67:249 *819:9 0.00930805
78 *67:255 *665:7 0.000198829
79 *67:257 *74:65 0.00127786
80 *67:257 *648:37 0.00649711
81 *67:261 *897:adc_data[4] 0.00333755
82 *67:261 *104:22 0.119329
83 *67:261 *107:21 0.0435242
84 *67:261 *118:43 0.00110908
85 *67:265 *104:18 0.00260905
86 *897:io_in[1] *67:265 0.000945287
87 *12:5 *67:71 0
88 *20:29 *67:181 0
89 *22:5 *67:23 0
90 *26:13 *67:95 0.00020513
91 *37:5 *67:73 0.00827591
*RES
1 io_in[9] *67:15 48.9533 
2 *67:15 *67:23 45.154 
3 *67:23 *67:35 49.7247 
4 *67:35 *67:39 9.43853 
5 *67:39 *67:43 46.6421 
6 *67:43 *67:51 42.1962 
7 *67:51 *67:55 16.0687 
8 *67:55 *67:57 119.732 
9 *67:57 *67:71 43.683 
10 *67:71 *67:73 101.518 
11 *67:73 *67:79 13.353 
12 *67:79 *67:81 64.4821 
13 *67:81 *67:87 11.191 
14 *67:87 *67:89 49.9107 
15 *67:89 *67:95 9.029 
16 *67:95 *67:97 246.018 
17 *67:97 *67:103 10.11 
18 *67:103 *67:105 55.9821 
19 *67:105 *67:119 38.19 
20 *67:119 *67:127 45.4334 
21 *67:127 *67:135 48.9647 
22 *67:135 *67:143 22.7273 
23 *67:143 *67:151 41.837 
24 *67:151 *67:159 32.0022 
25 *67:159 *67:161 83.3036 
26 *67:161 *67:175 48.6881 
27 *67:175 *67:179 46.035 
28 *67:179 *67:181 80.041 
29 *67:181 *67:183 3.41 
30 *67:183 *67:185 68.125 
31 *67:185 *67:191 15.515 
32 *67:191 *67:193 96.0536 
33 *67:193 *67:207 43.6543 
34 *67:207 *67:215 26.6693 
35 *67:215 *67:217 120.339 
36 *67:217 *67:223 17.3167 
37 *67:223 *67:231 41.0028 
38 *67:231 *67:239 39.3125 
39 *67:239 *67:243 47.7321 
40 *67:243 *67:247 15.7143 
41 *67:247 *67:249 116.848 
42 *67:249 *67:255 9.17313 
43 *67:255 *67:257 79.6607 
44 *67:257 *67:259 3.41 
45 *67:259 *67:261 187.06 
46 *67:261 *67:263 3.41 
47 *67:263 *67:265 57.1964 
48 *67:265 *897:io_in[2] 3.94267 
*END

*D_NET *69 0.793587
*CONN
*P io_oeb[10] O
*I *897:io_oeb[3] O *D soc_sys
*CAP
1 io_oeb[10] 0.000224736
2 *897:io_oeb[3] 0.0150257
3 *69:25 0.0308954
4 *69:23 0.0306706
5 *69:21 0.0966163
6 *69:19 0.0966163
7 *69:17 0.0302266
8 *69:15 0.0452523
9 *69:15 *70:16 6.72003e-05
10 *69:15 *71:23 0.00422173
11 *69:15 *74:21 0.00027539
12 *69:15 *75:28 0.00206597
13 *69:15 *76:35 6.76974e-05
14 *69:17 *634:18 0.00420233
15 *69:17 *771:17 0.00920832
16 *69:17 *772:27 0.000683734
17 *69:17 *772:29 0.0282091
18 *69:21 *71:29 0.25252
19 *69:21 *768:18 0.00348151
20 *69:21 *774:22 0
21 *69:25 *71:33 0.0713128
22 *69:25 *141:25 0.00155762
23 *24:9 *69:25 0.030429
24 *25:17 *69:17 0.0391105
25 *44:19 *69:21 0.00020458
26 *65:9 *69:25 0.000424324
27 *66:9 *69:25 1.708e-05
*RES
1 *897:io_oeb[3] *69:15 10.8817 
2 *69:15 *69:17 159.101 
3 *69:17 *69:19 3.41 
4 *69:19 *69:21 417.457 
5 *69:21 *69:23 3.41 
6 *69:23 *69:25 148.981 
7 *69:25 io_oeb[10] 3.8659 
*END

*D_NET *70 0.965791
*CONN
*P io_oeb[11] O
*I *897:io_oeb[4] O *D soc_sys
*CAP
1 io_oeb[11] 0.00017504
2 *897:io_oeb[4] 0.0241132
3 *70:22 0.0687687
4 *70:20 0.0685937
5 *70:18 0.0445552
6 *70:16 0.0686685
7 *70:16 *74:21 2.99833e-06
8 *70:16 *76:35 0.00245522
9 *70:16 *105:27 0.00299297
10 *70:16 *569:19 0
11 *70:16 *602:15 0.0066611
12 *70:16 *779:17 0
13 *70:18 *105:29 0.264378
14 *70:18 *111:27 3.76491e-05
15 *70:18 *528:15 0.201646
16 *70:18 *754:13 0.0301712
17 *70:22 *71:33 0.0375596
18 *70:22 *72:17 0.0138803
19 *70:22 *73:25 0.0331762
20 *70:22 *108:17 0.0143401
21 *66:9 *70:22 0.0835487
22 *69:15 *70:16 6.72003e-05
*RES
1 *897:io_oeb[4] *70:16 44.3084 
2 *70:16 *70:18 414.286 
3 *70:18 *70:20 3.41 
4 *70:20 *70:22 319.967 
5 *70:22 io_oeb[11] 3.9223 
*END

*D_NET *71 0.906182
*CONN
*P io_oeb[12] O
*I *897:io_oeb[5] O *D soc_sys
*CAP
1 io_oeb[12] 0.000130557
2 *897:io_oeb[5] 0.020229
3 *71:33 0.0391827
4 *71:31 0.0390521
5 *71:29 0.0773586
6 *71:27 0.0773586
7 *71:25 0.0497864
8 *71:23 0.0700154
9 *71:23 *72:7 0
10 *71:23 *74:21 0.000720508
11 *71:23 *75:28 0.00411096
12 *71:23 *76:35 4.52709e-05
13 *71:23 *77:15 0.0145582
14 *71:23 *645:13 0.000723767
15 *71:25 *80:22 0
16 *71:25 *604:15 0
17 *71:29 *768:18 0.0829088
18 *71:33 *72:17 0.00306262
19 *71:33 *142:30 0.0063507
20 *24:9 *71:33 0.00222328
21 *24:13 *71:29 0
22 *26:9 *71:33 0.0312794
23 *66:9 *71:33 0.0214715
24 *69:15 *71:23 0.00422173
25 *69:21 *71:29 0.25252
26 *69:25 *71:33 0.0713128
27 *70:22 *71:33 0.0375596
*RES
1 *897:io_oeb[5] *71:23 16.4189 
2 *71:23 *71:25 155.479 
3 *71:25 *71:27 3.41 
4 *71:27 *71:29 402.179 
5 *71:29 *71:31 3.41 
6 *71:31 *71:33 232.183 
7 *71:33 io_oeb[12] 3.72177 
*END

*D_NET *72 0.863938
*CONN
*P io_oeb[13] O
*I *897:io_oeb[6] O *D soc_sys
*CAP
1 io_oeb[13] 2.67943e-05
2 *897:io_oeb[6] 0.000393815
3 *72:17 0.0335021
4 *72:15 0.0334753
5 *72:13 0.140863
6 *72:11 0.140863
7 *72:9 0.00310818
8 *72:7 0.00350199
9 *72:7 *73:15 0
10 *72:7 *76:35 5.00505e-05
11 *72:9 *73:17 0.000873378
12 *72:13 *698:17 0
13 *72:13 *703:19 2.03842e-05
14 *72:13 *705:25 0.0112146
15 *72:13 *727:13 0
16 *72:13 *743:13 0
17 *72:13 *769:13 0.000386194
18 *72:13 *770:21 0.000268946
19 *72:13 *779:13 0.0936855
20 *72:17 *73:25 0.188572
21 *72:17 *108:17 0.145049
22 *26:9 *72:17 0.0113348
23 *53:23 *72:9 0.00717399
24 *53:31 *72:9 0.00549283
25 *55:19 *72:9 0.00379047
26 *57:19 *72:9 0.00292552
27 *66:9 *72:17 0.0204225
28 *67:207 *72:13 0
29 *70:22 *72:17 0.0138803
30 *71:23 *72:7 0
31 *71:33 *72:17 0.00306262
*RES
1 *897:io_oeb[6] *72:7 4.1902 
2 *72:7 *72:9 158.589 
3 *72:9 *72:11 3.41 
4 *72:11 *72:13 455.364 
5 *72:13 *72:15 3.41 
6 *72:15 *72:17 2311.52 
7 *72:17 io_oeb[13] 3.46953 
*END

*D_NET *73 0.782347
*CONN
*P io_oeb[14] O
*I *897:io_oeb[7] O *D soc_sys
*CAP
1 io_oeb[14] 0.0010281
2 *897:io_oeb[7] 0.00169927
3 *73:25 0.0822762
4 *73:23 0.0812481
5 *73:21 0.126211
6 *73:19 0.126211
7 *73:17 0.00299398
8 *73:15 0.00469325
9 *73:15 *74:21 9.08558e-05
10 *73:15 *76:35 4.38192e-05
11 *73:15 *78:7 3.49196e-05
12 *73:17 *83:19 0.00596602
13 *73:17 *86:13 0.00323935
14 *73:21 *125:32 0
15 *73:21 *701:15 0
16 *73:21 *702:23 0
17 *73:21 *714:27 0.000122824
18 *73:21 *727:13 4.08422e-05
19 *73:21 *743:13 0.102074
20 *73:21 *757:29 0.015816
21 *73:25 *108:17 0.000294363
22 *47:41 *73:17 0.000206049
23 *49:19 *73:17 0.00238083
24 *53:23 *73:17 0.000352893
25 *57:19 *73:17 0.000724674
26 *58:19 *73:15 0.00133827
27 *66:9 *73:25 0.000365662
28 *67:207 *73:21 0.000273073
29 *70:22 *73:25 0.0331762
30 *72:7 *73:15 0
31 *72:9 *73:17 0.000873378
32 *72:17 *73:25 0.188572
*RES
1 *897:io_oeb[7] *73:15 14.7389 
2 *73:15 *73:17 132.482 
3 *73:17 *73:19 3.41 
4 *73:19 *73:21 455.652 
5 *73:21 *73:23 3.41 
6 *73:23 *73:25 2535.75 
7 *73:25 io_oeb[14] 23.9695 
*END

*D_NET *74 0.767547
*CONN
*P io_oeb[15] O
*I *897:io_oeb[8] O *D soc_sys
*CAP
1 io_oeb[15] 0.131523
2 *897:io_oeb[8] 0.00260948
3 *74:81 0.131523
4 *74:79 0.0693814
5 *74:77 0.0742756
6 *74:65 0.0175203
7 *74:43 0.0390993
8 *74:41 0.027844
9 *74:37 0.00188152
10 *74:31 0.00304653
11 *74:29 0.00268013
12 *74:23 0.00148173
13 *74:21 0.00394687
14 *74:21 io_out[36] 5.52879e-05
15 *74:21 *76:35 0.000604738
16 *74:21 *104:16 0.000645969
17 *74:21 *105:27 2.79465e-05
18 *74:21 *122:15 8.30179e-05
19 *74:21 *136:7 0.000860218
20 *74:23 *98:17 0.00186214
21 *74:23 *103:15 0.000466759
22 *74:23 *123:9 0.00348866
23 *74:29 *110:7 2.49937e-05
24 *74:31 *107:9 0.000903815
25 *74:31 *143:19 0.00290942
26 *74:41 io_out[37] 0.00156923
27 *74:41 *110:9 0.00362545
28 *74:43 *103:35 0.119937
29 *74:43 *107:21 1.0446e-05
30 *74:43 *108:13 0.0437966
31 *74:43 *112:31 0
32 *74:65 *118:57 0.00149359
33 *74:65 *648:37 0.0059992
34 *74:65 *768:12 2.01379e-05
35 *74:65 *773:40 0.00293494
36 *74:65 *774:16 0.000170855
37 *74:77 *103:39 0.000153178
38 *74:77 *773:40 0.00342812
39 *74:77 *775:9 8.82337e-05
40 *74:79 *897:sram_dat_i[23] 1.85819e-05
41 *74:79 *897:sram_dat_i[24] 2.03842e-05
42 *74:79 *897:sram_dat_i[25] 0
43 *74:79 *805:11 9.16729e-05
44 *74:79 *805:13 0.0438224
45 *74:79 *873:5 0
46 *74:79 *875:11 0.000899714
47 *897:io_in[0] *74:37 0
48 *897:io_in[17] *74:31 0.00124298
49 *897:io_in[28] *74:23 0.000806669
50 *38:21 *74:31 0.00325991
51 *44:29 *74:31 0.000970609
52 *45:49 *74:23 0.00553574
53 *45:49 *74:31 0.000934485
54 *47:41 *74:31 0.00032891
55 *49:19 *74:31 0.00527365
56 *67:257 *74:65 0.00127786
57 *69:15 *74:21 0.00027539
58 *70:16 *74:21 2.99833e-06
59 *71:23 *74:21 0.000720508
60 *73:15 *74:21 9.08558e-05
*RES
1 *897:io_oeb[8] *74:21 18.1855 
2 *74:21 *74:23 83.9107 
3 *74:23 *74:29 7.15527 
4 *74:29 *74:31 141.589 
5 *74:31 *74:37 7.87593 
6 *74:37 *74:41 47.8564 
7 *74:41 *74:43 189.402 
8 *74:43 *74:65 49.5828 
9 *74:65 *74:77 16.9429 
10 *74:77 *74:79 220.967 
11 *74:79 *74:81 3.41 
12 *74:81 io_oeb[15] 2707.31 
*END

*D_NET *75 0.604454
*CONN
*P io_oeb[16] O
*I *897:io_oeb[9] O *D soc_sys
*CAP
1 io_oeb[16] 0.000156489
2 *897:io_oeb[9] 0.0158618
3 *75:34 0.0858603
4 *75:32 0.0857038
5 *75:30 0.138314
6 *75:28 0.154176
7 *75:28 *76:35 2.151e-05
8 *75:28 *81:12 0.000803652
9 *75:28 *543:15 0.00135909
10 *75:28 *598:17 0.00337307
11 *75:28 *619:10 0.00137797
12 *75:30 *125:28 0
13 *75:30 *598:17 0.0018867
14 *75:30 *743:17 0.0090401
15 *75:34 io_out[18] 9.31015e-05
16 *75:34 io_out[21] 0.000576852
17 *75:34 io_out[22] 0.00152154
18 *75:34 *77:21 0.00446591
19 *75:34 *80:26 0.0279922
20 *75:34 *82:21 0.0163097
21 *75:34 *116:27 0.00662876
22 *895:vinp_p *75:30 0.0100861
23 *39:15 *75:34 0.000770827
24 *40:11 *75:34 0.0122375
25 *42:11 *75:34 0.00538501
26 *43:11 *75:34 0.0135223
27 *44:11 *75:34 0.000752727
28 *69:15 *75:28 0.00206597
29 *71:23 *75:28 0.00411096
*RES
1 *897:io_oeb[9] *75:28 25.0874 
2 *75:28 *75:30 462.023 
3 *75:30 *75:32 3.41 
4 *75:32 *75:34 330.437 
5 *75:34 io_oeb[16] 6.50821 
*END

*D_NET *76 0.523023
*CONN
*P io_oeb[17] O
*I *897:io_oeb[10] O *D soc_sys
*CAP
1 io_oeb[17] 0.000500141
2 *897:io_oeb[10] 0.00536844
3 *76:61 0.13094
4 *76:59 0.13044
5 *76:57 0.105998
6 *76:55 0.105998
7 *76:53 0.000715777
8 *76:51 0.00765781
9 *76:35 0.0123105
10 *76:35 *897:wbs_cyc_i 0
11 *76:35 *77:15 0
12 *76:35 *105:27 0.000350589
13 *76:51 *897:wbs_cyc_i 0.000459718
14 *76:51 *80:20 6.97534e-05
15 *76:51 *86:13 0.000105644
16 *76:51 *88:6 0.000234389
17 *76:51 *93:17 0.000227146
18 *76:51 *97:15 6.40827e-06
19 *76:51 *98:15 0.000662731
20 *76:51 *131:23 0.000501393
21 *76:53 *123:9 0.00213453
22 *76:57 *897:wbs_dat_i[1] 0
23 *76:57 *82:15 0.0023744
24 *76:57 *85:20 0
25 *76:57 *87:23 0.000139603
26 *76:57 *542:28 0
27 *76:57 *608:25 0
28 *76:57 *709:15 0
29 *76:57 *738:13 0
30 *45:31 *76:57 0.000389421
31 *45:33 *76:35 0.000721858
32 *45:47 *76:35 1.95291e-05
33 *46:43 *76:35 4.94506e-05
34 *47:39 *76:51 4.86533e-05
35 *47:39 *76:57 0
36 *48:27 *76:53 0.00381335
37 *50:19 *76:35 0.00113446
38 *51:11 *76:51 0.00108896
39 *57:11 *76:53 0.00077358
40 *67:207 *76:57 0.00450126
41 *69:15 *76:35 6.76974e-05
42 *70:16 *76:35 0.00245522
43 *71:23 *76:35 4.52709e-05
44 *72:7 *76:35 5.00505e-05
45 *73:15 *76:35 4.38192e-05
46 *74:21 *76:35 0.000604738
47 *75:28 *76:35 2.151e-05
*RES
1 *897:io_oeb[10] *76:35 40.6004 
2 *76:35 *76:51 23.0571 
3 *76:51 *76:53 46.875 
4 *76:53 *76:55 3.41 
5 *76:55 *76:57 311.159 
6 *76:57 *76:59 3.41 
7 *76:59 *76:61 2597.09 
8 *76:61 io_oeb[17] 9.95536 
*END

*D_NET *77 0.598581
*CONN
*P io_oeb[18] O
*I *897:io_oeb[11] O *D soc_sys
*CAP
1 io_oeb[18] 0.000104311
2 *897:io_oeb[11] 0.017072
3 *77:21 0.0461298
4 *77:19 0.0460255
5 *77:17 0.135917
6 *77:15 0.152989
7 *77:15 *897:wbs_cyc_i 0.000729459
8 *77:15 *78:7 0
9 *77:17 *115:14 0
10 *77:17 *570:15 0
11 *77:17 *784:25 0.0281663
12 *77:21 *82:21 0.000733563
13 *77:21 *112:41 0.017866
14 *77:21 *116:27 0.109832
15 *77:21 *118:79 0.00472187
16 *24:17 *77:17 0.0145983
17 *40:11 *77:21 0.00467225
18 *71:23 *77:15 0.0145582
19 *75:34 *77:21 0.00446591
20 *76:35 *77:15 0
*RES
1 *897:io_oeb[11] *77:15 10.4617 
2 *77:15 *77:17 476.251 
3 *77:17 *77:19 3.41 
4 *77:19 *77:21 212.319 
5 *77:21 io_oeb[18] 5.02607 
*END

*D_NET *78 0.444597
*CONN
*P io_oeb[19] O
*I *897:io_oeb[12] O *D soc_sys
*CAP
1 io_oeb[19] 0.125936
2 *897:io_oeb[12] 0.000561986
3 *78:31 0.125936
4 *78:29 0.0127652
5 *78:27 0.0131093
6 *78:21 0.0341331
7 *78:19 0.0423246
8 *78:9 0.0105697
9 *78:7 0.00259616
10 *78:9 *87:15 0.000898912
11 *78:19 *897:wb_clk_i 0.00256108
12 *78:19 *897:wb_rst_i 0.000507238
13 *78:19 *897:wbs_adr_i[0] 0.000697371
14 *78:19 *897:wbs_adr_i[2] 0.000399243
15 *78:19 *897:wbs_cyc_i 4.88647e-05
16 *78:19 *897:wbs_dat_i[0] 9.5164e-05
17 *78:19 *897:wbs_dat_i[1] 0.000513851
18 *78:19 *897:wbs_dat_i[2] 4.98422e-05
19 *78:19 *897:wbs_sel_i[0] 9.5164e-05
20 *78:19 *897:wbs_sel_i[1] 2.48858e-05
21 *78:19 *897:wbs_sel_i[2] 4.88647e-05
22 *78:19 *897:wbs_stb_i 0.000415961
23 *78:19 *897:wbs_we_i 0.000325313
24 *78:19 *84:24 0.00255096
25 *78:19 *125:32 0.00347977
26 *78:19 *129:47 0.00118668
27 *78:19 *542:28 0.000342536
28 *78:19 *554:31 4.64849e-05
29 *78:19 *608:25 0.000355202
30 *78:19 *619:8 4.88647e-05
31 *78:19 *630:16 0.000797154
32 *78:21 *897:wb_clk_i 0.000333831
33 *78:21 *897:wbs_adr_i[10] 0.000269125
34 *78:21 *897:wbs_adr_i[11] 2.48858e-05
35 *78:21 *897:wbs_adr_i[12] 4.88647e-05
36 *78:21 *897:wbs_adr_i[14] 4.88647e-05
37 *78:21 *897:wbs_adr_i[16] 2.48858e-05
38 *78:21 *897:wbs_adr_i[17] 4.88647e-05
39 *78:21 *897:wbs_adr_i[18] 4.88647e-05
40 *78:21 *897:wbs_adr_i[19] 4.88647e-05
41 *78:21 *897:wbs_adr_i[20] 9.781e-05
42 *78:21 *897:wbs_adr_i[21] 0.000111282
43 *78:21 *897:wbs_adr_i[22] 4.88647e-05
44 *78:21 *897:wbs_adr_i[23] 2.48858e-05
45 *78:21 *897:wbs_adr_i[25] 4.88647e-05
46 *78:21 *897:wbs_adr_i[26] 0.000490881
47 *78:21 *897:wbs_adr_i[27] 0.000502863
48 *78:21 *897:wbs_adr_i[3] 0.00038058
49 *78:21 *897:wbs_adr_i[4] 9.5164e-05
50 *78:21 *897:wbs_adr_i[5] 9.5164e-05
51 *78:21 *897:wbs_adr_i[6] 0.000285868
52 *78:21 *897:wbs_adr_i[7] 4.88647e-05
53 *78:21 *897:wbs_adr_i[8] 0.00039299
54 *78:21 *897:wbs_adr_i[9] 0.000356027
55 *78:21 *897:wbs_dat_i[10] 4.88647e-05
56 *78:21 *897:wbs_dat_i[11] 4.88647e-05
57 *78:21 *897:wbs_dat_i[12] 4.88647e-05
58 *78:21 *897:wbs_dat_i[13] 0.00257712
59 *78:21 *897:wbs_dat_i[14] 2.48858e-05
60 *78:21 *897:wbs_dat_i[15] 0.00158009
61 *78:21 *897:wbs_dat_i[16] 4.88647e-05
62 *78:21 *897:wbs_dat_i[17] 4.88647e-05
63 *78:21 *897:wbs_dat_i[18] 4.88647e-05
64 *78:21 *897:wbs_dat_i[19] 0.000160245
65 *78:21 *897:wbs_dat_i[20] 4.88647e-05
66 *78:21 *897:wbs_dat_i[21] 4.88647e-05
67 *78:21 *897:wbs_dat_i[22] 4.88647e-05
68 *78:21 *897:wbs_dat_i[23] 4.88647e-05
69 *78:21 *897:wbs_dat_i[24] 0.00176809
70 *78:21 *897:wbs_dat_i[25] 0.000497115
71 *78:21 *897:wbs_dat_i[26] 0.000415961
72 *78:21 *897:wbs_dat_i[27] 4.88647e-05
73 *78:21 *897:wbs_dat_i[3] 0.000685406
74 *78:21 *897:wbs_dat_i[4] 0.00085302
75 *78:21 *897:wbs_dat_i[5] 0.000934988
76 *78:21 *897:wbs_dat_i[6] 4.88647e-05
77 *78:21 *897:wbs_dat_i[7] 0.000356027
78 *78:21 *897:wbs_dat_i[8] 4.31981e-05
79 *78:21 *897:wbs_dat_i[9] 2.48858e-05
80 *78:21 *897:wbs_sel_i[3] 0.000944536
81 *78:21 *540:33 0.00262584
82 *78:21 *609:8 0.000361774
83 *78:21 *610:8 4.88647e-05
84 *78:21 *611:12 0.00111006
85 *78:21 *612:8 4.88647e-05
86 *78:21 *613:8 4.88647e-05
87 *78:21 *614:8 4.88647e-05
88 *78:21 *615:8 0.000269125
89 *78:21 *616:8 0.000497115
90 *78:21 *617:8 4.88647e-05
91 *78:21 *618:8 4.88647e-05
92 *78:21 *620:8 4.88647e-05
93 *78:21 *621:8 4.88647e-05
94 *78:21 *622:8 2.48858e-05
95 *78:21 *623:12 0.0010978
96 *78:21 *624:8 0.000587344
97 *78:21 *625:8 4.88647e-05
98 *78:21 *626:8 4.88647e-05
99 *78:21 *633:8 9.5164e-05
100 *78:21 *634:16 0.00105143
101 *78:21 *635:8 9.5164e-05
102 *78:21 *636:8 0.00021445
103 *78:21 *637:8 2.48858e-05
104 *78:21 *638:8 0.00148361
105 *78:21 *639:8 0.00039299
106 *78:21 *665:13 0.0165925
107 *78:21 *711:19 0.000148348
108 *78:21 *712:15 0.000416162
109 *78:21 *718:15 0.0025151
110 *78:21 *757:29 0
111 *78:29 *757:21 0
112 *78:29 *757:29 0.00101165
113 *78:29 *759:21 0
114 *78:29 *760:21 0
115 *47:39 *78:7 0.000119155
116 *48:27 *78:9 0.00274371
117 *48:33 *78:9 0.000403461
118 *48:35 *78:9 0.00160162
119 *49:19 *78:9 0.00983999
120 *73:15 *78:7 3.49196e-05
121 *77:15 *78:7 0
*RES
1 *897:io_oeb[12] *78:7 4.69467 
2 *78:7 *78:9 121.554 
3 *78:9 *78:19 38.2229 
4 *78:19 *78:21 134.127 
5 *78:21 *78:27 13.6511 
6 *78:27 *78:29 227.661 
7 *78:29 *78:31 4.5 
8 *78:31 io_oeb[19] 2586.95 
*END

*D_NET *80 0.499969
*CONN
*P io_oeb[20] O
*I *897:io_oeb[13] O *D soc_sys
*CAP
1 io_oeb[20] 0.000113356
2 *897:io_oeb[13] 0.0246743
3 *80:26 0.0110482
4 *80:24 0.0109348
5 *80:22 0.140655
6 *80:20 0.165329
7 *80:20 *897:wbs_we_i 0.00046289
8 *80:20 *81:12 0.00249886
9 *80:20 *84:24 0.00218116
10 *80:20 *85:20 0.0017964
11 *80:20 *131:23 9.40346e-05
12 *80:22 *604:15 0.00328741
13 *80:26 io_out[22] 0.00152154
14 *80:26 *82:21 0.00108103
15 *80:26 *116:27 0.0662909
16 *1:9 *80:22 0.0256084
17 *43:11 *80:26 0.0135223
18 *44:11 *80:26 0.000752727
19 *47:39 *80:20 5.39208e-05
20 *51:11 *80:20 0
21 *71:25 *80:22 0
22 *75:34 *80:26 0.0279922
23 *76:51 *80:20 6.97534e-05
*RES
1 *897:io_oeb[13] *80:20 18.8721 
2 *80:20 *80:22 467.515 
3 *80:22 *80:24 3.41 
4 *80:24 *80:26 103.355 
5 *80:26 io_oeb[20] 5.29393 
*END

*D_NET *81 0.383045
*CONN
*P io_oeb[21] O
*I *897:io_oeb[14] O *D soc_sys
*CAP
1 io_oeb[21] 0.0887622
2 *897:io_oeb[14] 0.0231078
3 *81:20 0.0887622
4 *81:18 0.0117249
5 *81:16 0.0117249
6 *81:14 0.0474132
7 *81:12 0.070521
8 *81:12 *84:24 0.000576642
9 *81:14 *636:10 0.00484069
10 *81:18 *768:18 0.031993
11 *1:9 *81:14 0
12 *24:13 *81:18 0
13 *47:39 *81:12 0.000316329
14 *75:28 *81:12 0.000803652
15 *80:20 *81:12 0.00249886
*RES
1 *897:io_oeb[14] *81:12 11.6856 
2 *81:12 *81:14 153.562 
3 *81:14 *81:16 3.41 
4 *81:16 *81:18 50.89 
5 *81:18 *81:20 3.41 
6 *81:20 io_oeb[21] 1824.53 
*END

*D_NET *82 0.361031
*CONN
*P io_oeb[22] O
*I *897:io_oeb[15] O *D soc_sys
*CAP
1 io_oeb[22] 0.000151204
2 *897:io_oeb[15] 0.000156005
3 *82:21 0.012563
4 *82:19 0.0124118
5 *82:17 0.143333
6 *82:15 0.144178
7 *82:9 0.00234045
8 *82:7 0.00165178
9 *82:7 *83:15 0
10 *82:9 *91:11 0.000855404
11 *82:15 *85:20 0
12 *82:21 io_oeb[23] 0.000104382
13 *82:21 io_out[23] 0.00295481
14 *82:21 *116:27 0.00162213
15 *17:11 *82:17 0.00311527
16 *45:33 *82:9 0.0018804
17 *46:35 *82:9 0.00483708
18 *47:39 *82:15 0.00014332
19 *50:19 *82:9 0.00823467
20 *75:34 *82:21 0.0163097
21 *76:57 *82:15 0.0023744
22 *77:21 *82:21 0.000733563
23 *80:26 *82:21 0.00108103
*RES
1 *897:io_oeb[15] *82:7 3.82987 
2 *82:7 *82:9 101.518 
3 *82:9 *82:15 10.5784 
4 *82:15 *82:17 456.116 
5 *82:17 *82:19 3.41 
6 *82:19 *82:21 51.3945 
7 *82:21 io_oeb[22] 5.90107 
*END

*D_NET *83 0.338754
*CONN
*P io_oeb[23] O
*I *897:io_oeb[16] O *D soc_sys
*CAP
1 io_oeb[23] 0.00187346
2 *897:io_oeb[16] 0.00169783
3 *83:19 0.112188
4 *83:17 0.110315
5 *83:15 0.00169783
6 *83:15 io_oeb[34] 0.000407037
7 *83:15 io_oeb[35] 5.12609e-05
8 *83:15 *123:9 0.00316154
9 *46:19 *83:19 0
10 *46:27 *83:19 0.0228108
11 *46:35 *83:19 0
12 *47:19 *83:19 0
13 *48:33 *83:15 0.00069499
14 *48:35 *83:15 0.00136498
15 *49:19 *83:19 0
16 *50:19 *83:19 0
17 *53:23 *83:19 0.0759273
18 *57:11 *83:15 0.000370834
19 *57:17 *83:15 0.000111033
20 *58:19 *83:15 1.19034e-05
21 *73:17 *83:19 0.00596602
22 *82:7 *83:15 0
23 *82:21 io_oeb[23] 0.000104382
*RES
1 *897:io_oeb[16] *83:15 48.4373 
2 *83:15 *83:17 3.41 
3 *83:17 *83:19 2653.95 
4 *83:19 io_oeb[23] 16.543 
*END

*D_NET *84 0.388884
*CONN
*P io_oeb[24] O
*I *897:io_oeb[17] O *D soc_sys
*CAP
1 io_oeb[24] 0.000133909
2 *897:io_oeb[17] 0.0101779
3 *84:34 0.0153989
4 *84:32 0.0156466
5 *84:26 0.0493072
6 *84:24 0.0591034
7 *84:24 *897:wb_clk_i 0.000662656
8 *84:24 *897:wb_rst_i 0.00191328
9 *84:24 *85:20 0.00774116
10 *84:24 *644:19 0.000943858
11 *84:24 *645:13 0.000622872
12 *84:26 *85:22 0.0619151
13 *84:26 *93:27 0.00314163
14 *84:26 *122:17 0
15 *84:26 *130:17 0.00483389
16 *84:26 *132:17 0.0071172
17 *84:34 *85:30 0.00301093
18 *84:34 *122:25 0.0288338
19 *84:34 *124:17 0.00442518
20 *47:19 *84:26 0.0882153
21 *47:39 *84:24 0.000100528
22 *48:11 *84:26 0.00313068
23 *48:19 *84:26 0.00249496
24 *49:17 *84:26 0.002088
25 *50:11 *84:26 0.00862762
26 *53:19 *84:26 0.00288809
27 *54:13 *84:26 0.00110021
28 *78:19 *84:24 0.00255096
29 *80:20 *84:24 0.00218116
30 *81:12 *84:24 0.000576642
*RES
1 *897:io_oeb[17] *84:24 41.2638 
2 *84:24 *84:26 1927.8 
3 *84:26 *84:32 7.69577 
4 *84:32 *84:34 80.7993 
5 *84:34 io_oeb[24] 3.85963 
*END

*D_NET *85 0.470051
*CONN
*P io_oeb[25] O
*I *897:io_oeb[18] O *D soc_sys
*CAP
1 io_oeb[25] 0.000129308
2 *897:io_oeb[18] 0.00982463
3 *85:30 0.0252227
4 *85:28 0.0253058
5 *85:22 0.00993306
6 *85:20 0.0195453
7 *85:20 *897:wb_rst_i 9.21616e-05
8 *85:20 *897:wbs_we_i 4.09284e-05
9 *85:20 *88:6 0.000378084
10 *85:20 *89:25 0.00110828
11 *85:20 *121:23 0.000180831
12 *85:20 *123:15 0.000133765
13 *85:20 *131:23 0.000732999
14 *85:20 *542:28 0.00136094
15 *85:22 *93:27 0.00231172
16 *85:22 *122:17 0
17 *85:22 *124:9 0.043091
18 *85:22 *130:17 0.0041481
19 *85:22 *132:17 0.00636114
20 *85:28 io_oeb[31] 2.71935e-05
21 *85:30 io_out[26] 0.000204598
22 *85:30 *122:17 0.00306299
23 *85:30 *122:25 0.00932513
24 *85:30 *124:17 0.102629
25 *85:30 *130:17 0.0024492
26 *47:11 *85:30 0.00519434
27 *47:19 *85:22 8.67458e-05
28 *47:39 *85:20 0.000854869
29 *48:11 *85:30 0.103112
30 *48:19 *85:22 0.0181902
31 *51:23 *85:20 0.00054984
32 *76:57 *85:20 0
33 *80:20 *85:20 0.0017964
34 *82:15 *85:20 0
35 *84:24 *85:20 0.00774116
36 *84:26 *85:22 0.0619151
37 *84:34 *85:30 0.00301093
*RES
1 *897:io_oeb[18] *85:20 40.3911 
2 *85:20 *85:22 762.089 
3 *85:22 *85:28 7.33543 
4 *85:28 *85:30 245.393 
5 *85:30 io_oeb[25] 3.73117 
*END

*D_NET *86 0.307957
*CONN
*P io_oeb[26] O
*I *897:io_oeb[19] O *D soc_sys
*CAP
1 io_oeb[26] 0.000148573
2 *897:io_oeb[19] 0.00163016
3 *86:25 0.0520027
4 *86:23 0.0521031
5 *86:17 0.0102145
6 *86:15 0.00996548
7 *86:13 0.00163016
8 *86:13 *93:17 1.84589e-05
9 *86:13 *94:15 4.5607e-05
10 *86:13 *98:15 0.00204847
11 *86:13 *121:23 4.13641e-05
12 *86:13 *132:15 3.72773e-05
13 *86:17 *92:9 0.0055774
14 *86:17 *94:17 0.00686846
15 *86:17 *122:17 0
16 *86:17 *124:9 0.00307243
17 *86:17 *127:9 0.00411491
18 *86:17 *130:9 0.0281268
19 *86:17 *130:17 0.001064
20 *86:23 io_out[33] 0
21 *86:25 *92:17 0.00760347
22 *86:25 *124:17 0.117634
23 *49:19 *86:13 0.000664064
24 *73:17 *86:13 0.00323935
25 *76:51 *86:13 0.000105644
*RES
1 *897:io_oeb[19] *86:13 49.6038 
2 *86:13 *86:15 3.41 
3 *86:15 *86:17 412.375 
4 *86:17 *86:23 7.4075 
5 *86:23 *86:25 274.69 
6 *86:25 io_oeb[26] 3.7531 
*END

*D_NET *87 0.306246
*CONN
*P io_oeb[27] O
*I *897:io_oeb[20] O *D soc_sys
*CAP
1 io_oeb[27] 0.00655312
2 *897:io_oeb[20] 0.00113797
3 *87:33 0.0266565
4 *87:31 0.0201851
5 *87:25 0.0309242
6 *87:23 0.0318808
7 *87:17 0.00195051
8 *87:15 0.00205026
9 io_oeb[27] *124:17 0.000322558
10 *87:15 *92:7 0
11 *87:15 *98:15 0.00023967
12 *87:15 *121:23 0.000547982
13 *87:17 *89:19 0.00401875
14 *87:17 *122:17 0.00565287
15 *87:17 *131:9 0.000854583
16 *87:17 *132:9 0.000317068
17 *87:17 *133:29 0.00135978
18 *87:25 *127:17 0.0179473
19 *87:33 *88:6 0.0386174
20 *87:33 *123:17 0
21 *87:33 *127:17 0.0239763
22 *45:21 *87:25 0
23 *45:31 *87:25 0.000157561
24 *46:35 *87:25 0.0823566
25 *46:35 *87:33 0.00507373
26 *47:19 io_oeb[27] 0.00140235
27 *48:11 io_oeb[27] 0
28 *48:35 *87:15 0.000900964
29 *49:17 io_oeb[27] 0
30 *51:23 *87:15 0
31 *57:11 *87:15 0.000123605
32 *76:57 *87:23 0.000139603
33 *78:9 *87:15 0.000898912
*RES
1 *897:io_oeb[20] *87:15 23.6242 
2 *87:15 *87:17 69.3393 
3 *87:17 *87:23 8.88487 
4 *87:23 *87:25 1009.8 
5 *87:25 *87:31 6.9751 
6 *87:31 *87:33 108.178 
7 *87:33 io_oeb[27] 26.1928 
*END

*D_NET *88 0.304639
*CONN
*P io_oeb[28] O
*I *897:io_oeb[21] O *D soc_sys
*CAP
1 io_oeb[28] 0.00122696
2 *897:io_oeb[21] 0
3 *88:6 0.0337827
4 *88:4 0.0325558
5 io_oeb[28] *124:17 0.000322558
6 *88:6 *89:17 0.000322558
7 *88:6 *89:27 0.103486
8 *88:6 *91:11 0.0901409
9 *88:6 *93:17 0.000322558
10 *88:6 *123:17 0
11 *88:6 *127:17 0.000244531
12 *88:6 *131:23 3.35973e-05
13 *45:21 *88:6 0.00285531
14 *46:43 *88:6 0.000115619
15 *47:39 *88:6 0
16 *76:51 *88:6 0.000234389
17 *85:20 *88:6 0.000378084
18 *87:33 *88:6 0.0386174
*RES
1 *897:io_oeb[21] *88:4 3.41 
2 *88:4 *88:6 271.068 
3 *88:6 io_oeb[28] 6.21277 
*END

*D_NET *89 0.234836
*CONN
*P io_oeb[29] O
*I *897:io_oeb[22] O *D soc_sys
*CAP
1 io_oeb[29] 0.0011653
2 *897:io_oeb[22] 0.00192154
3 *89:27 0.0398759
4 *89:25 0.039486
5 *89:19 0.0024212
6 *89:17 0.00356731
7 *89:17 io_oeb[35] 0.000324931
8 *89:17 *91:9 4.98422e-05
9 *89:17 *91:11 0.000111243
10 *89:17 *93:17 0.000868949
11 *89:17 *97:15 0.000283618
12 *89:19 *122:17 0.000361891
13 *89:19 *132:9 0.000368954
14 *89:25 *123:15 0.000137669
15 *89:25 *127:15 0.00101276
16 *89:27 *123:17 0.0122066
17 *45:21 *89:27 0.0212349
18 *46:43 *89:17 0.000501861
19 *85:20 *89:25 0.00110828
20 *87:17 *89:19 0.00401875
21 *88:6 *89:17 0.000322558
22 *88:6 *89:27 0.103486
*RES
1 *897:io_oeb[22] *89:17 34.4908 
2 *89:17 *89:19 57.1964 
3 *89:19 *89:25 9.3533 
4 *89:25 *89:27 215.99 
5 *89:27 io_oeb[29] 6.0373 
*END

*D_NET *91 0.221886
*CONN
*P io_oeb[30] O
*I *897:io_oeb[23] O *D soc_sys
*CAP
1 io_oeb[30] 0.00116183
2 *897:io_oeb[23] 0.000140567
3 *91:11 0.0221666
4 *91:9 0.0211453
5 *91:11 *127:17 0.0836923
6 *45:31 *91:11 0.000597246
7 *45:33 *91:11 0.000370307
8 *46:35 *91:11 0.000811333
9 *46:43 *91:11 0.00010385
10 *50:19 *91:11 0.000539161
11 *82:9 *91:11 0.000855404
12 *88:6 *91:11 0.0901409
13 *89:17 *91:9 4.98422e-05
14 *89:17 *91:11 0.000111243
*RES
1 *897:io_oeb[23] *91:9 3.73117 
2 *91:9 *91:11 188.398 
3 *91:11 io_oeb[30] 6.0561 
*END

*D_NET *92 0.150139
*CONN
*P io_oeb[31] O
*I *897:io_oeb[24] O *D soc_sys
*CAP
1 io_oeb[31] 0.000295229
2 *897:io_oeb[24] 0.00103976
3 *92:17 0.0175217
4 *92:15 0.0173114
5 *92:9 0.00301255
6 *92:7 0.00396742
7 io_oeb[31] *124:17 0.000322558
8 *92:7 *98:15 4.91441e-05
9 *92:9 *93:19 0.0099978
10 *92:9 *94:17 0.000559541
11 *92:9 *122:17 0.0033236
12 *92:9 *127:9 0.00594636
13 *92:9 *133:29 0.00306542
14 *92:17 io_oeb[33] 0.000228481
15 *92:17 io_out[34] 0.000204598
16 *92:17 *94:17 0.0146828
17 *92:17 *122:17 0.014439
18 *92:17 *124:17 0.0196194
19 *92:17 *130:17 0.0210279
20 *92:17 *133:29 7.59294e-05
21 *20:17 *92:17 0.000228481
22 *53:29 *92:7 1.16796e-05
23 *85:28 io_oeb[31] 2.71935e-05
24 *86:17 *92:9 0.0055774
25 *86:25 *92:17 0.00760347
26 *87:15 *92:7 0
*RES
1 *897:io_oeb[24] *92:7 5.4874 
2 *92:7 *92:9 195.018 
3 *92:9 *92:15 6.9751 
4 *92:15 *92:17 112.44 
5 *92:17 io_oeb[31] 4.05077 
*END

*D_NET *93 0.124428
*CONN
*P io_oeb[32] O
*I *897:io_oeb[25] O *D soc_sys
*CAP
1 io_oeb[32] 0.000446564
2 *897:io_oeb[25] 0.00134943
3 *93:27 0.0102789
4 *93:25 0.0101481
5 *93:19 0.00187276
6 *93:17 0.00290642
7 io_oeb[32] *124:15 0.000357045
8 io_oeb[32] *124:17 0.000322558
9 *93:17 *94:15 0.00010998
10 *93:17 *97:15 0.000467095
11 *93:17 *131:23 8.77988e-05
12 *93:17 *132:15 0
13 *93:19 *122:17 0.0100014
14 *93:19 *133:29 0.00207761
15 *93:25 io_oeb[34] 4.27611e-05
16 *93:27 *130:17 0.00784474
17 *93:27 *132:17 0.0241178
18 *45:33 *93:17 0.000450287
19 *46:43 *93:17 0.000250313
20 *47:19 *93:27 0.00933895
21 *55:11 *93:27 0.0154025
22 *57:11 *93:27 0.0096672
23 *76:51 *93:17 0.000227146
24 *84:26 *93:27 0.00314163
25 *85:22 *93:27 0.00231172
26 *86:13 *93:17 1.84589e-05
27 *88:6 *93:17 0.000322558
28 *89:17 *93:17 0.000868949
29 *92:9 *93:19 0.0099978
*RES
1 *897:io_oeb[25] *93:17 26.3817 
2 *93:17 *93:19 122.768 
3 *93:19 *93:25 7.4075 
4 *93:25 *93:27 80.9058 
5 *93:27 io_oeb[32] 4.6273 
*END

*D_NET *94 0.0773256
*CONN
*P io_oeb[33] O
*I *897:io_oeb[26] O *D soc_sys
*CAP
1 io_oeb[33] 0.000353251
2 *897:io_oeb[26] 0.000991074
3 *94:17 0.00741162
4 *94:15 0.00804944
5 *94:15 io_oeb[34] 0
6 *94:15 *123:9 0.00108444
7 *94:15 *124:9 0.00108989
8 *94:15 *131:23 0.00100416
9 *94:17 io_oeb[34] 0.0100114
10 *94:17 *127:9 0.000861975
11 *94:17 *130:17 0.000229636
12 *94:17 *132:17 0.0102712
13 *94:17 *133:29 0.0134358
14 *46:41 *94:15 3.68027e-05
15 *86:13 *94:15 4.5607e-05
16 *86:17 *94:17 0.00686846
17 *92:9 *94:17 0.000559541
18 *92:17 io_oeb[33] 0.000228481
19 *92:17 *94:17 0.0146828
20 *93:17 *94:15 0.00010998
*RES
1 *897:io_oeb[26] *94:15 25.8005 
2 *94:15 *94:17 61.3037 
3 *94:17 io_oeb[33] 4.1949 
*END

*D_NET *95 0.0328521
*CONN
*P io_oeb[34] O
*I *897:io_oeb[27] O *D soc_sys
*CAP
1 io_oeb[34] 0.003907
2 *897:io_oeb[27] 0.003907
3 io_oeb[34] io_oeb[35] 0.000335007
4 io_oeb[34] *97:15 0.000639074
5 io_oeb[34] *124:9 0.00135149
6 io_oeb[34] *130:9 0.00206656
7 io_oeb[34] *131:23 0
8 io_oeb[34] *132:17 0.00969735
9 io_oeb[34] *133:29 0.000270209
10 *46:41 io_oeb[34] 3.68027e-05
11 *57:11 io_oeb[34] 0.00018037
12 *83:15 io_oeb[34] 0.000407037
13 *93:25 io_oeb[34] 4.27611e-05
14 *94:15 io_oeb[34] 0
15 *94:17 io_oeb[34] 0.0100114
*RES
1 *897:io_oeb[27] io_oeb[34] 32.0653 
*END

*D_NET *96 0.0213547
*CONN
*P io_oeb[35] O
*I *897:io_oeb[28] O *D soc_sys
*CAP
1 io_oeb[35] 0.0039013
2 *897:io_oeb[28] 0.0039013
3 io_oeb[35] io_out[35] 0.00256472
4 io_oeb[35] *97:15 0.00454402
5 io_oeb[35] *121:9 0.000906197
6 io_oeb[35] *122:15 0
7 io_oeb[35] *124:9 0.000105594
8 io_oeb[35] *133:29 0.0046269
9 io_oeb[35] *136:7 9.34324e-05
10 io_oeb[34] io_oeb[35] 0.000335007
11 *83:15 io_oeb[35] 5.12609e-05
12 *89:17 io_oeb[35] 0.000324931
*RES
1 *897:io_oeb[28] io_oeb[35] 28.1235 
*END

*D_NET *97 0.0602461
*CONN
*P io_oeb[36] O
*I *897:io_oeb[29] O *D soc_sys
*CAP
1 io_oeb[36] 0.00953169
2 *897:io_oeb[29] 0.00447725
3 *97:15 0.0140089
4 io_oeb[36] *103:15 0.00075403
5 io_oeb[36] *108:9 0.000736777
6 io_oeb[36] *112:17 0.000799872
7 io_oeb[36] *143:19 0.000592337
8 *97:15 io_out[35] 7.53428e-05
9 *97:15 io_out[36] 0.000529752
10 *97:15 *98:17 0.00144767
11 *97:15 *123:9 0.00150322
12 *97:15 *124:9 0.00144767
13 *97:15 *127:9 0.000859612
14 *97:15 *130:9 0.001743
15 *97:15 *132:7 0
16 io_oeb[34] *97:15 0.000639074
17 io_oeb[35] *97:15 0.00454402
18 *897:io_in[17] io_oeb[36] 0.000296678
19 *897:io_in[28] io_oeb[36] 0.00922407
20 *897:io_in[28] *97:15 0.000501179
21 *897:io_in[30] io_oeb[36] 9.01829e-05
22 *45:49 io_oeb[36] 0.000651982
23 *57:11 *97:15 0.00219608
24 *58:19 *97:15 0.00283858
25 *76:51 *97:15 6.40827e-06
26 *89:17 *97:15 0.000283618
27 *93:17 *97:15 0.000467095
*RES
1 *897:io_oeb[29] *97:15 33.2459 
2 *97:15 io_oeb[36] 33.996 
*END

*D_NET *98 0.0777155
*CONN
*P io_oeb[37] O
*I *897:io_oeb[30] O *D soc_sys
*CAP
1 io_oeb[37] 7.66701e-05
2 *897:io_oeb[30] 0.00112495
3 *98:27 0.00917276
4 *98:17 0.0122994
5 *98:15 0.00432829
6 *98:17 *108:9 0.00094058
7 *98:17 *109:9 0.00242871
8 *98:17 *112:17 0.000450526
9 *98:17 *123:9 0.0106946
10 *98:17 *124:9 0.0104063
11 *98:27 io_out[36] 0
12 *98:27 io_out[37] 0.0143016
13 *897:io_in[28] *98:17 0.0012807
14 *45:49 *98:17 0.000306651
15 *48:43 *98:17 0.00161086
16 *49:19 *98:15 0.00198314
17 *51:23 *98:15 0
18 *74:23 *98:17 0.00186214
19 *76:51 *98:15 0.000662731
20 *86:13 *98:15 0.00204847
21 *87:15 *98:15 0.00023967
22 *92:7 *98:15 4.91441e-05
23 *97:15 *98:17 0.00144767
*RES
1 *897:io_oeb[30] *98:15 37.0119 
2 *98:15 *98:17 208.982 
3 *98:17 *98:27 47.8808 
4 *98:27 io_oeb[37] 3.64657 
*END

*D_NET *103 0.713084
*CONN
*P io_oeb[7] O
*I *897:io_oeb[0] O *D soc_sys
*CAP
1 io_oeb[7] 0.0876894
2 *897:io_oeb[0] 0.000743596
3 *103:41 0.0876894
4 *103:39 0.0966539
5 *103:37 0.0966539
6 *103:35 0.0196589
7 *103:33 0.0196589
8 *103:31 0.00104795
9 *103:29 0.00176698
10 *103:23 0.00533546
11 *103:21 0.00515339
12 *103:15 0.00205014
13 *103:13 0.00225678
14 *103:13 *133:15 0.000188331
15 *103:13 *136:7 3.86139e-05
16 *103:15 *123:9 0
17 *103:15 *133:17 1.37595e-05
18 *103:21 *113:7 0
19 *103:23 *110:9 0.00217526
20 *103:29 *118:17 0
21 *103:35 *108:13 0.000339604
22 *103:39 *716:9 0.00192845
23 *103:39 *717:9 0.00152506
24 *103:39 *727:9 0.00178262
25 *103:39 *743:9 0.00164661
26 *103:39 *748:9 0.00156297
27 *103:39 *749:9 0.0104445
28 *103:39 *754:9 0.00203969
29 *103:39 *761:15 0
30 *103:39 *771:11 0
31 *103:39 *775:9 0
32 *103:39 *819:9 0.00183772
33 io_oeb[36] *103:15 0.00075403
34 *31:23 *103:31 0.00448825
35 *37:21 *103:31 0.00240229
36 *42:17 *103:35 0.121159
37 *45:49 *103:15 0.00252433
38 *46:51 *103:23 0.00595168
39 *48:35 *103:15 5.7986e-05
40 *49:19 *103:15 0.00330658
41 *74:23 *103:15 0.000466759
42 *74:43 *103:35 0.119937
43 *74:77 *103:39 0.000153178
*RES
1 *897:io_oeb[0] *103:13 5.22733 
2 *103:13 *103:15 74.1964 
3 *103:15 *103:21 7.948 
4 *103:21 *103:23 141.589 
5 *103:23 *103:29 8.30833 
6 *103:29 *103:31 55.9821 
7 *103:31 *103:33 3.41 
8 *103:33 *103:35 190.267 
9 *103:35 *103:37 3.41 
10 *103:37 *103:39 235.486 
11 *103:39 *103:41 3.41 
12 *103:41 io_oeb[7] 265.373 
*END

*D_NET *104 0.751471
*CONN
*P io_oeb[8] O
*I *897:io_oeb[1] O *D soc_sys
*CAP
1 io_oeb[8] 0.0937564
2 *897:io_oeb[1] 0.00635317
3 *104:28 0.0937564
4 *104:26 0.0455984
5 *104:24 0.0455984
6 *104:22 0.0201923
7 *104:20 0.0201923
8 *104:18 0.00569712
9 *104:16 0.0120503
10 *104:16 *105:27 0.00024897
11 *104:16 *115:12 4.26254e-05
12 *104:16 *118:9 0.000228481
13 *104:16 *118:11 0.000766447
14 *104:16 *119:12 0.000101779
15 *104:16 *120:12 0.000742219
16 *104:16 *125:28 0.000172289
17 *104:16 *126:20 4.26254e-05
18 *104:16 *129:27 0.000100289
19 *104:16 *142:16 0.000209646
20 *104:16 *143:17 0.000120617
21 *104:18 *118:11 0.0046056
22 *104:18 *141:11 0.00113808
23 *104:18 *142:16 0.000248195
24 *104:22 *897:adc_data[4] 0.00466733
25 *104:22 *107:21 0.000199933
26 *104:22 *112:33 0.00592639
27 *104:22 *118:43 0.00169168
28 *104:22 *540:50 0.0873596
29 *104:22 *542:36 0.00199551
30 *104:22 *644:17 0.000957184
31 *104:22 *649:25 0.0121751
32 *104:26 *897:sram_dat_i[27] 0.000346486
33 *104:26 *112:37 0.128337
34 *104:26 *118:73 1.94879e-05
35 *104:26 *652:31 9.43575e-05
36 *104:26 *676:9 0.000101288
37 *104:26 *712:9 0
38 *104:26 *752:9 0
39 *104:26 *789:9 0.0190301
40 *104:26 *874:11 0.000162046
41 *104:26 *878:11 7.06535e-05
42 *104:26 *880:11 0.000631071
43 *897:io_in[1] *104:18 0.000914176
44 *40:25 *104:22 0.00638877
45 *40:35 *104:22 0.00379716
46 *40:37 *104:18 0
47 *67:239 *104:26 0.00205886
48 *67:261 *104:22 0.119329
49 *67:265 *104:18 0.00260905
50 *74:21 *104:16 0.000645969
*RES
1 *897:io_oeb[1] *104:16 30.8395 
2 *104:16 *104:18 167.089 
3 *104:18 *104:20 3.41 
4 *104:20 *104:22 188.213 
5 *104:22 *104:24 3.41 
6 *104:24 *104:26 1584.77 
7 *104:26 *104:28 3.41 
8 *104:28 io_oeb[8] 266.274 
*END

*D_NET *105 1.01799
*CONN
*P io_oeb[9] O
*I *897:io_oeb[2] O *D soc_sys
*CAP
1 io_oeb[9] 0.00101645
2 *897:io_oeb[2] 0.0203678
3 *105:33 0.0498143
4 *105:31 0.0487978
5 *105:29 0.0390403
6 *105:27 0.0594081
7 *105:27 *129:27 0.00226281
8 *105:27 *565:15 0.00690956
9 *105:29 *111:27 0.273342
10 *105:29 *754:13 0.00251425
11 *105:33 *107:25 0.0167294
12 *105:33 *109:25 0.024346
13 *105:33 *111:31 0.0273453
14 *105:33 *143:51 0.0159852
15 *31:9 *105:33 0.113566
16 *32:9 *105:33 0.0232656
17 *33:9 *105:33 0.0252774
18 *70:16 *105:27 0.00299297
19 *70:18 *105:29 0.264378
20 *74:21 *105:27 2.79465e-05
21 *76:35 *105:27 0.000350589
22 *104:16 *105:27 0.00024897
*RES
1 *897:io_oeb[2] *105:27 47.5359 
2 *105:27 *105:29 425.817 
3 *105:29 *105:31 3.41 
4 *105:31 *105:33 236.977 
5 *105:33 io_oeb[9] 5.88377 
*END

*D_NET *107 0.934952
*CONN
*P io_out[10] O
*I *897:io_out[3] O *D soc_sys
*CAP
1 io_out[10] 0.000886393
2 *897:io_out[3] 0.00050587
3 *107:25 0.029972
4 *107:23 0.0290856
5 *107:21 0.0772971
6 *107:19 0.0772971
7 *107:17 0.000917277
8 *107:15 0.0011291
9 *107:9 0.00231092
10 *107:7 0.00260496
11 *107:7 *108:7 0
12 *107:7 *143:17 0
13 *107:9 *114:9 0.00377716
14 *107:15 *114:15 0.000371358
15 *107:17 *108:9 0.00574925
16 *107:17 *112:21 0.00580062
17 *107:21 *897:adc_data[4] 0.00176447
18 *107:21 *898:wbs_adr_i[10] 0
19 *107:21 *898:wbs_adr_i[20] 9.97767e-06
20 *107:21 *898:wbs_adr_i[28] 0.000434909
21 *107:21 *898:wbs_adr_i[31] 2.27249e-05
22 *107:21 *898:wbs_adr_i[5] 0.000690053
23 *107:21 *898:wbs_dat_i[11] 0
24 *107:21 *898:wbs_dat_i[22] 0.00167079
25 *107:21 *898:wbs_dat_i[24] 2.27249e-05
26 *107:21 *898:wbs_dat_i[7] 0.00180443
27 *107:21 *898:wbs_sel_i[0] 0.0147259
28 *107:21 *108:13 0.29045
29 *107:21 *112:31 0
30 *107:21 *118:43 0.000492172
31 *107:21 *540:50 0.000863268
32 *107:21 *810:27 0
33 *107:21 *839:12 0
34 *107:21 *841:29 0.000581887
35 *107:21 *843:14 0.000422577
36 *107:21 *845:27 0.000810373
37 *107:21 *846:8 2.27249e-05
38 *107:25 *143:51 0.14364
39 *897:io_in[0] *107:17 0.000822761
40 *897:io_in[19] *107:9 0.00112476
41 *897:io_in[30] *107:17 0.000100832
42 *31:9 *107:25 0.00650254
43 *32:9 *107:25 0.163014
44 *37:21 *107:9 0.000979501
45 *38:21 *107:9 0.000154447
46 *40:35 *107:21 6.1887e-05
47 *44:29 *107:17 2.46867e-05
48 *47:41 *107:9 0.00466579
49 *67:261 *107:21 0.0435242
50 *74:31 *107:9 0.000903815
51 *74:43 *107:21 1.0446e-05
52 *104:22 *107:21 0.000199933
53 *105:33 *107:25 0.0167294
*RES
1 *897:io_out[3] *107:7 4.47847 
2 *107:7 *107:9 103.339 
3 *107:9 *107:15 7.44353 
4 *107:15 *107:17 71.1607 
5 *107:17 *107:19 3.41 
6 *107:19 *107:21 454.139 
7 *107:21 *107:23 3.41 
8 *107:23 *107:25 1997.62 
9 *107:25 io_out[10] 5.55947 
*END

*D_NET *108 0.945705
*CONN
*P io_out[11] O
*I *897:io_out[4] O *D soc_sys
*CAP
1 io_out[11] 7.09536e-05
2 *897:io_out[4] 0.000748991
3 *108:17 0.0376634
4 *108:15 0.0375925
5 *108:13 0.0824169
6 *108:11 0.0824169
7 *108:9 0.00243303
8 *108:7 0.00318202
9 *108:7 *109:7 0
10 *108:7 *111:21 1.95291e-05
11 *108:9 *112:17 0.00496963
12 *108:9 *112:21 0.00113971
13 *108:9 *143:19 0.00016293
14 *108:17 *142:30 0.124231
15 io_oeb[36] *108:9 0.000736777
16 *897:io_in[0] *108:9 0.00089007
17 *897:io_in[28] *108:9 0.000320474
18 *26:9 *108:17 0.0325578
19 *42:17 *108:13 0.000794669
20 *44:29 *108:9 0.00851082
21 *45:49 *108:9 0.00563082
22 *66:9 *108:17 0.0182568
23 *70:22 *108:17 0.0143401
24 *72:17 *108:17 0.145049
25 *73:25 *108:17 0.000294363
26 *74:43 *108:13 0.0437966
27 *98:17 *108:9 0.00094058
28 *103:35 *108:13 0.000339604
29 *107:7 *108:7 0
30 *107:17 *108:9 0.00574925
31 *107:21 *108:13 0.29045
*RES
1 *897:io_out[4] *108:7 4.98293 
2 *108:7 *108:9 177.411 
3 *108:9 *108:11 3.41 
4 *108:11 *108:13 456.085 
5 *108:13 *108:15 3.41 
6 *108:15 *108:17 2233.8 
7 *108:17 io_out[11] 3.5416 
*END

*D_NET *109 0.980595
*CONN
*P io_out[12] O
*I *897:io_out[5] O *D soc_sys
*CAP
1 io_out[12] 0.000893775
2 *897:io_out[5] 0.00085674
3 *109:25 0.0327438
4 *109:23 0.03185
5 *109:21 0.0834709
6 *109:19 0.0845935
7 *109:9 0.0045227
8 *109:7 0.00425676
9 *109:7 *110:7 0
10 *109:7 *111:21 1.95291e-05
11 *109:9 io_out[36] 0.000432664
12 *109:9 *112:17 0.00251047
13 *109:9 *112:21 0.00814528
14 *109:9 *113:9 0
15 *109:9 *118:19 0.00561094
16 *109:19 *112:31 0.000421528
17 *109:19 *114:27 0.00108657
18 *109:19 *118:43 0.000446341
19 *109:19 *540:19 0.000204407
20 *109:19 *542:36 0.00268816
21 *109:21 *898:wbs_adr_i[30] 0.00228277
22 *109:21 *898:wbs_dat_i[26] 0.000542115
23 *109:21 *898:wbs_stb_i 0.00234396
24 *109:21 *112:33 0
25 *109:21 *114:29 0.191503
26 *109:21 *540:58 0.0123943
27 *109:21 *541:27 0.00374665
28 *109:21 *644:17 0.000236873
29 *109:21 *646:22 0
30 *109:21 *646:30 0.00487784
31 *109:21 *647:33 0.00155706
32 *109:21 *649:17 0.00084605
33 *109:21 *649:25 0.000333683
34 *109:21 *650:37 0.0344972
35 *109:21 *651:33 0.000631323
36 *109:21 *656:29 0.00917945
37 *109:21 *808:19 0.000104613
38 *109:21 *834:11 0.000131918
39 *109:21 *841:29 0.0026137
40 *109:25 *111:31 0.163444
41 *897:io_in[0] *109:9 0.000465354
42 *897:io_in[30] *109:9 0.000842886
43 *31:9 *109:25 0.00110845
44 *33:9 *109:25 0.0217168
45 *34:9 *109:25 0.202116
46 *39:41 *109:9 0.0012078
47 *40:25 *109:21 0
48 *43:25 *109:21 0.0272742
49 *43:33 *109:21 0.000558627
50 *43:37 *109:9 0.000341758
51 *44:29 *109:9 0
52 *48:43 *109:9 0.00216832
53 *98:17 *109:9 0.00242871
54 *105:33 *109:25 0.024346
55 *108:7 *109:7 0
*RES
1 *897:io_out[5] *109:7 5.19913 
2 *109:7 *109:9 186.518 
3 *109:9 *109:19 17.3371 
4 *109:19 *109:21 2554.77 
5 *109:21 *109:23 4.5 
6 *109:23 *109:25 2476.81 
7 *109:25 io_out[12] 5.84773 
*END

*D_NET *110 0.708892
*CONN
*P io_out[13] O
*I *897:io_out[6] O *D soc_sys
*CAP
1 io_out[13] 0.00175109
2 *897:io_out[6] 0.00105902
3 *110:25 0.134415
4 *110:23 0.132664
5 *110:21 0.0693875
6 *110:19 0.0697401
7 *110:13 0.033308
8 *110:11 0.0329554
9 *110:9 0.00426891
10 *110:7 0.00532793
11 *110:9 io_out[37] 0.00217475
12 *110:9 *113:9 0.00409993
13 *110:9 *114:17 0.0063019
14 *110:9 *136:9 0.00228026
15 *110:13 *851:11 0.000313958
16 *110:13 *852:11 0.00161776
17 *110:19 *890:9 0
18 *110:21 *825:9 0
19 *110:21 *826:9 0
20 *110:21 *828:9 0
21 *110:21 *840:9 0.0327828
22 *110:21 *860:15 0.000236981
23 *110:21 *864:25 0
24 *897:io_in[26] *110:9 0.000432664
25 *32:21 *110:13 0.123329
26 *38:17 *110:13 0.000191891
27 *39:27 *110:21 0.000121771
28 *39:29 *110:21 0
29 *39:37 *110:13 0.0397159
30 *39:41 *110:9 0
31 *46:51 *110:9 0.00013751
32 *51:25 *110:9 0.00445128
33 *74:29 *110:7 2.49937e-05
34 *74:41 *110:9 0.00362545
35 *103:23 *110:9 0.00217526
36 *109:7 *110:7 0
*RES
1 *897:io_out[6] *110:7 5.63153 
2 *110:7 *110:9 212.018 
3 *110:9 *110:11 3.41 
4 *110:11 *110:13 198.663 
5 *110:13 *110:19 13.6511 
6 *110:19 *110:21 1444.61 
7 *110:21 *110:23 4.5 
8 *110:23 *110:25 2730.29 
9 *110:25 io_out[13] 8.15387 
*END

*D_NET *111 0.978244
*CONN
*P io_out[14] O
*I *897:io_out[7] O *D soc_sys
*CAP
1 io_out[14] 0.000815079
2 *897:io_out[7] 0.00980708
3 *111:31 0.0437079
4 *111:29 0.0428929
5 *111:27 0.0895667
6 *111:25 0.0895667
7 *111:23 0.0128778
8 *111:21 0.0226849
9 *111:21 *112:15 0.000738293
10 *111:23 *587:15 0
11 *111:23 *640:19 0.0113923
12 *111:27 *653:14 0
13 *111:27 *700:15 0
14 *111:27 *717:15 0.0135788
15 *111:27 *733:15 0.000341953
16 *31:9 *111:31 0.00102439
17 *33:9 *111:31 0.158586
18 *34:9 *111:31 0.0081476
19 *35:9 *111:31 0.00756691
20 *50:19 *111:21 0.00074035
21 *70:18 *111:27 3.76491e-05
22 *105:29 *111:27 0.273342
23 *105:33 *111:31 0.0273453
24 *108:7 *111:21 1.95291e-05
25 *109:7 *111:21 1.95291e-05
26 *109:25 *111:31 0.163444
*RES
1 *897:io_out[7] *111:21 22.9003 
2 *111:21 *111:23 50.7569 
3 *111:23 *111:25 3.41 
4 *111:25 *111:27 433.852 
5 *111:27 *111:29 3.41 
6 *111:29 *111:31 2477.27 
7 *111:31 io_out[14] 5.77567 
*END

*D_NET *112 0.791982
*CONN
*P io_out[15] O
*I *897:io_out[8] O *D soc_sys
*CAP
1 io_out[15] 2.9868e-05
2 *897:io_out[8] 0.00177241
3 *112:45 0.00352435
4 *112:43 0.00353255
5 *112:41 0.0664445
6 *112:39 0.0664064
7 *112:37 0.114755
8 *112:35 0.114755
9 *112:33 0.0350845
10 *112:31 0.0358342
11 *112:21 0.00210067
12 *112:19 0.00137715
13 *112:17 0.00098385
14 *112:15 0.00273004
15 *112:15 *113:7 0
16 *112:15 *118:11 0
17 *112:15 *143:17 0.00078251
18 *112:31 *542:36 0.000674569
19 *112:33 *540:50 0.0192812
20 *112:37 *118:75 0
21 *112:37 *698:11 0
22 *112:37 *698:13 0
23 *112:37 *699:19 0
24 *112:37 *699:21 0
25 *112:37 *703:11 0
26 *112:37 *705:15 3.38439e-05
27 *112:37 *706:9 0.000701692
28 *112:37 *722:9 0.0272845
29 *112:37 *776:11 0
30 *112:37 *789:9 4.22135e-06
31 io_oeb[36] *112:17 0.000799872
32 *897:io_in[0] *112:21 0.000760371
33 *897:io_in[29] *112:15 0.000367674
34 *897:io_in[30] *112:15 1.7976e-05
35 *897:io_in[30] *112:21 0.000339249
36 *39:15 *112:41 0.00156729
37 *40:25 *112:33 0.110495
38 *40:35 *112:31 0.000760559
39 *40:35 *112:33 0.00119076
40 *44:29 *112:21 0.000116652
41 *50:19 *112:15 0.00116854
42 *74:43 *112:31 0
43 *77:21 *112:41 0.017866
44 *98:17 *112:17 0.000450526
45 *104:22 *112:33 0.00592639
46 *104:26 *112:37 0.128337
47 *107:17 *112:21 0.00580062
48 *107:21 *112:31 0
49 *108:9 *112:17 0.00496963
50 *108:9 *112:21 0.00113971
51 *109:9 *112:17 0.00251047
52 *109:9 *112:21 0.00814528
53 *109:19 *112:31 0.000421528
54 *109:21 *112:33 0
55 *111:21 *112:15 0.000738293
*RES
1 *897:io_out[8] *112:15 47.2613 
2 *112:15 *112:17 61.2321 
3 *112:17 *112:19 0.535714 
4 *112:19 *112:21 99.9107 
5 *112:21 *112:31 15.0048 
6 *112:31 *112:33 1068.8 
7 *112:33 *112:35 4.5 
8 *112:35 *112:37 3036.75 
9 *112:37 *112:39 4.5 
10 *112:39 *112:41 1272.31 
11 *112:41 *112:43 0.732143 
12 *112:43 *112:45 66.8661 
13 *112:45 io_out[15] 5.01786 
*END

*D_NET *113 0.774464
*CONN
*P io_out[16] O
*I *897:io_out[9] O *D soc_sys
*CAP
1 io_out[16] 0.147873
2 *897:io_out[9] 0.000956784
3 *113:23 0.147873
4 *113:21 0.0284822
5 *113:19 0.0285583
6 *113:13 0.0314036
7 *113:11 0.0313275
8 *113:9 0.0035802
9 *113:7 0.00453698
10 *113:7 *114:7 0
11 *113:9 io_out[37] 0.000795004
12 *113:9 *114:17 0.00629827
13 *113:9 *136:9 0.00316932
14 *113:13 *898:wbs_adr_i[0] 0.000318687
15 *113:13 *141:13 0
16 *113:13 *142:18 0.119853
17 *113:13 *558:19 0.0113785
18 *113:13 *573:17 0.0076292
19 *113:13 *583:15 0.0329731
20 *113:13 *596:15 0.00566659
21 *113:13 *642:21 0.00288467
22 *113:21 *898:wbs_adr_i[22] 0.000636181
23 *113:21 *898:wbs_adr_i[7] 0.00287584
24 *113:21 *898:wbs_dat_i[27] 0.000481389
25 *113:21 *142:26 0.000338394
26 *113:21 *797:21 0.000143941
27 *113:21 *807:13 0.0304175
28 *897:io_in[26] *113:9 0.00203274
29 *897:io_in[30] *113:9 0.00131813
30 *39:41 *113:9 0.00013198
31 *43:33 *113:13 4.59737e-05
32 *43:37 *113:9 0.00887087
33 *44:25 *113:13 7.66796e-06
34 *48:43 *113:9 0.00202018
35 *65:13 *113:21 0.105203
36 *65:21 *113:13 0.000282512
37 *67:97 io_out[16] 0
38 *103:21 *113:7 0
39 *109:9 *113:9 0
40 *110:9 *113:9 0.00409993
41 *112:15 *113:7 0
*RES
1 *897:io_out[9] *113:7 5.4874 
2 *113:7 *113:9 206.554 
3 *113:9 *113:11 3.41 
4 *113:11 *113:13 193.114 
5 *113:13 *113:19 9.0975 
6 *113:19 *113:21 1033.48 
7 *113:21 *113:23 4.5 
8 *113:23 io_out[16] 3043.21 
*END

*D_NET *114 0.758237
*CONN
*P io_out[17] O
*I *897:io_out[10] O *D soc_sys
*CAP
1 io_out[17] 0.147675
2 *897:io_out[10] 0.000408354
3 *114:31 0.147675
4 *114:29 0.0376041
5 *114:27 0.0389916
6 *114:17 0.00236728
7 *114:15 0.00149634
8 *114:9 0.00391068
9 *114:7 0.00380252
10 *114:17 io_out[37] 0.000857026
11 *114:27 *118:43 0.000585174
12 *114:27 *540:19 0.00103847
13 *114:27 *541:15 0
14 *114:29 *898:wbs_dat_i[26] 0.000640784
15 *114:29 *898:wbs_dat_i[30] 0.00275498
16 *114:29 *898:wbs_stb_i 0.00246908
17 *114:29 *118:45 0.0812682
18 *114:29 *646:30 0.0182861
19 *114:29 *656:29 0.0124962
20 *114:29 *808:21 0.0308994
21 *114:29 *834:11 0.00014225
22 *114:29 *883:21 0.00119147
23 *897:io_in[19] *114:9 0.00112335
24 *897:io_in[30] *114:17 0.000519366
25 *37:21 *114:9 1.37595e-05
26 *42:21 *114:9 0.00116346
27 *43:33 *114:27 0.00433923
28 *47:41 *114:9 0.000698251
29 *50:19 *114:9 0
30 *53:31 *114:9 0.000403053
31 *57:19 *114:9 0.00407865
32 *107:9 *114:9 0.00377716
33 *107:15 *114:15 0.000371358
34 *109:19 *114:27 0.00108657
35 *109:21 *114:29 0.191503
36 *110:9 *114:17 0.0063019
37 *113:7 *114:7 0
38 *113:9 *114:17 0.00629827
*RES
1 *897:io_out[10] *114:7 4.33433 
2 *114:7 *114:9 129.446 
3 *114:9 *114:15 8.09213 
4 *114:15 *114:17 77.2321 
5 *114:17 *114:27 19.9927 
6 *114:27 *114:29 1803.98 
7 *114:29 *114:31 4.5 
8 *114:31 io_out[17] 3039.27 
*END

*D_NET *115 0.65369
*CONN
*P io_out[18] O
*I *897:io_out[11] O *D soc_sys
*CAP
1 io_out[18] 0.000182206
2 *897:io_out[11] 0.0180983
3 *115:26 0.157273
4 *115:24 0.265844
5 *115:14 0.137871
6 *115:12 0.0472172
7 *115:12 *119:12 0.00242524
8 *115:14 *897:wbs_dat_i[5] 0.000143889
9 *115:14 *570:15 0.010557
10 *115:24 *895:en_pd 0.0135777
11 *24:17 *115:14 0
12 *24:17 *115:24 0.000364418
13 *75:34 io_out[18] 9.31015e-05
14 *77:17 *115:14 0
15 *104:16 *115:12 4.26254e-05
*RES
1 *897:io_out[11] *115:12 9.61242 
2 *115:12 *115:14 102.194 
3 *115:14 *115:24 33.0429 
4 *115:24 *115:26 387.509 
5 *115:26 io_out[18] 9.46617 
*END

*D_NET *116 0.628498
*CONN
*P io_out[19] O
*I *897:io_out[12] O *D soc_sys
*CAP
1 io_out[19] 7.55088e-05
2 *897:io_out[12] 0.024014
3 *116:27 0.0165714
4 *116:25 0.0164959
5 *116:23 0.143682
6 *116:21 0.167696
7 *116:21 io_out[35] 0.000212197
8 *116:21 io_out[36] 0.00526888
9 *116:21 *118:9 8.877e-06
10 *116:21 *121:9 0.0002652
11 *116:21 *122:15 1.90269e-05
12 *116:21 *125:28 0.000312804
13 *116:21 *127:9 0.0002652
14 *116:21 *129:27 0.004867
15 *116:21 *136:9 0.000786227
16 *116:23 *571:19 0.00767119
17 *116:23 *665:17 0.0306679
18 *897:io_in[26] *116:21 0.00221031
19 *40:11 *116:27 0.0134212
20 *42:11 *116:27 0.00947668
21 *48:43 *116:21 0.000135968
22 *75:34 *116:27 0.00662876
23 *77:21 *116:27 0.109832
24 *80:26 *116:27 0.0662909
25 *82:21 *116:27 0.00162213
*RES
1 *897:io_out[12] *116:21 30.2143 
2 *116:21 *116:23 485.2 
3 *116:23 *116:25 3.41 
4 *116:25 *116:27 171.169 
5 *116:27 io_out[19] 4.68679 
*END

*D_NET *118 0.640801
*CONN
*P io_out[20] O
*I *897:io_out[13] O *D soc_sys
*CAP
1 io_out[20] 0.000178601
2 *897:io_out[13] 0.000165305
3 *118:79 0.00566418
4 *118:77 0.00548558
5 *118:75 0.12979
6 *118:73 0.130397
7 *118:57 0.0159042
8 *118:55 0.015565
9 *118:45 0.0249892
10 *118:43 0.0566241
11 *118:19 0.0327877
12 *118:17 0.00172268
13 *118:11 0.00641602
14 *118:9 0.0057432
15 *118:11 *141:11 0.00143513
16 *118:11 *142:16 0.000238742
17 *118:43 *540:19 0.00452068
18 *118:43 *540:48 0.000115959
19 *118:43 *540:50 0.000124839
20 *118:43 *541:21 0.00160035
21 *118:43 *541:27 0.00339683
22 *118:43 *542:36 0.00306366
23 *118:43 *640:17 0.00131641
24 *118:43 *644:17 0.000630518
25 *118:43 *646:30 0.00396546
26 *118:43 *649:25 0.000189072
27 *118:43 *650:45 0.000113942
28 *118:45 *646:30 0.00917905
29 *118:45 *655:33 0.0205546
30 *118:45 *656:29 0.00662837
31 *118:55 *897:adc_data[4] 0.00015349
32 *118:55 *647:31 0.000652564
33 *118:55 *648:41 0.000400038
34 *118:55 *656:29 0.000149725
35 *118:57 *648:37 0.000117371
36 *118:57 *699:19 0.000154719
37 *118:57 *699:21 0.00185688
38 *118:57 *699:43 0.00554343
39 *118:57 *699:47 0.00170891
40 *118:57 *741:9 0.000633016
41 *118:57 *758:23 0.000482869
42 *118:57 *768:12 3.26217e-05
43 *118:57 *773:40 0.00496494
44 *118:57 *776:13 0.00283233
45 *118:57 *777:9 0.000782751
46 *118:57 *787:11 0.00122263
47 *118:73 *897:sram_dat_i[23] 0.00030349
48 *118:73 *874:11 0.000322978
49 *118:75 *652:31 1.84488e-05
50 *118:75 *656:23 0.000200498
51 *118:75 *657:19 4.21517e-05
52 *118:75 *699:49 0.00673263
53 *118:75 *700:11 0.0111566
54 *118:75 *722:9 0
55 *118:75 *773:42 0.0012226
56 *118:75 *776:13 0
57 *118:75 *776:31 0
58 *118:75 *777:9 0
59 *897:io_in[0] *118:19 0.000465354
60 *897:io_in[30] *118:19 0.000144274
61 *897:io_in[3] *118:17 0.000105035
62 *897:io_in[4] *118:17 0.000156855
63 *39:41 *118:19 0.005662
64 *40:35 *118:43 0.000238636
65 *40:37 *118:11 0
66 *44:29 *118:19 0
67 *50:19 *118:11 0
68 *67:243 *118:57 0.000786923
69 *67:261 *118:43 0.00110908
70 *74:65 *118:57 0.00149359
71 *77:21 *118:79 0.00472187
72 *103:29 *118:17 0
73 *104:16 *118:9 0.000228481
74 *104:16 *118:11 0.000766447
75 *104:18 *118:11 0.0046056
76 *104:22 *118:43 0.00169168
77 *104:26 *118:73 1.94879e-05
78 *107:21 *118:43 0.000492172
79 *109:9 *118:19 0.00561094
80 *109:19 *118:43 0.000446341
81 *112:15 *118:11 0
82 *112:37 *118:75 0
83 *114:27 *118:43 0.000585174
84 *114:29 *118:45 0.0812682
85 *116:21 *118:9 8.877e-06
*RES
1 *897:io_out[13] *118:9 3.94267 
2 *118:9 *118:11 144.625 
3 *118:11 *118:17 8.74073 
4 *118:17 *118:19 69.3393 
5 *118:19 *118:43 26.0786 
6 *118:43 *118:45 764.054 
7 *118:45 *118:55 13.831 
8 *118:55 *118:57 57.8946 
9 *118:57 *118:73 20.7689 
10 *118:73 *118:75 2708.59 
11 *118:75 *118:77 4.5 
12 *118:77 *118:79 105.062 
13 *118:79 io_out[20] 7.72321 
*END

*D_NET *119 0.419135
*CONN
*P io_out[21] O
*I *897:io_out[14] O *D soc_sys
*CAP
1 io_out[21] 0.000972231
2 *897:io_out[14] 0.0128589
3 *119:22 0.12149
4 *119:20 0.120518
5 *119:18 0.0267007
6 *119:16 0.0267007
7 *119:14 0.0303679
8 *119:12 0.0432268
9 *119:14 *120:14 0
10 *119:14 *601:13 0.00993122
11 *119:18 *895:e_pd 7.76075e-06
12 *119:18 *895:en_pd 0.017915
13 *119:22 *700:19 0.00534107
14 *75:34 io_out[21] 0.000576852
15 *104:16 *119:12 0.000101779
16 *115:12 *119:12 0.00242524
*RES
1 *897:io_out[14] *119:12 8.44894 
2 *119:12 *119:14 104.876 
3 *119:14 *119:16 3.41 
4 *119:16 *119:18 81.1941 
5 *119:18 *119:20 3.41 
6 *119:20 *119:22 388.787 
7 *119:22 io_out[21] 14.2729 
*END

*D_NET *120 0.376954
*CONN
*P io_out[22] O
*I *897:io_out[15] O *D soc_sys
*CAP
1 io_out[22] 0.000400659
2 *897:io_out[15] 0.0141702
3 *120:22 0.124082
4 *120:20 0.134834
5 *120:14 0.0440945
6 *120:12 0.047113
7 *120:12 *126:20 0.00205159
8 *23:9 *120:14 0.00642264
9 *75:34 io_out[22] 0.00152154
10 *80:26 io_out[22] 0.00152154
11 *104:16 *120:12 0.000742219
12 *119:14 *120:14 0
*RES
1 *897:io_out[15] *120:12 10.9074 
2 *120:12 *120:14 103.81 
3 *120:14 *120:20 38.1439 
4 *120:20 *120:22 387.083 
5 *120:22 io_out[22] 11.7002 
*END

*D_NET *121 0.409443
*CONN
*P io_out[23] O
*I *897:io_out[16] O *D soc_sys
*CAP
1 io_out[23] 0.00117585
2 *897:io_out[16] 0.000975433
3 *121:25 0.119294
4 *121:23 0.124321
5 *121:9 0.00809231
6 *121:7 0.00286513
7 *121:7 *122:9 0
8 *121:9 io_out[36] 0.000404499
9 *121:9 *122:17 0.00345117
10 *121:9 *127:9 0.00853928
11 *121:9 *133:29 0.000482095
12 *121:9 *136:9 0.00415134
13 *121:23 *897:wbs_we_i 0.000165799
14 *121:25 *125:34 0
15 *121:25 *126:22 0.127607
16 *121:25 *129:51 3.9657e-05
17 *121:25 *608:25 0.000822797
18 *121:25 *608:27 0.000170375
19 io_oeb[35] *121:9 0.000906197
20 *48:43 *121:9 0.0009963
21 *51:23 *121:23 0.000991966
22 *82:21 io_out[23] 0.00295481
23 *85:20 *121:23 0.000180831
24 *86:13 *121:23 4.13641e-05
25 *87:15 *121:23 0.000547982
26 *116:21 *121:9 0.0002652
*RES
1 *897:io_out[16] *121:7 5.4874 
2 *121:7 *121:9 127.018 
3 *121:9 *121:23 10.9464 
4 *121:23 *121:25 470.498 
5 *121:25 io_out[23] 14.5414 
*END

*D_NET *122 0.400411
*CONN
*P io_out[24] O
*I *897:io_out[17] O *D soc_sys
*CAP
1 io_out[24] 0.000133909
2 *897:io_out[17] 0.00141308
3 *122:25 0.00803026
4 *122:23 0.00797095
5 *122:17 0.100151
6 *122:15 0.100552
7 *122:9 0.00188864
8 *122:9 *123:7 0
9 *122:15 io_out[35] 0
10 *122:15 io_out[36] 0.000592473
11 *122:15 *136:7 4.71639e-05
12 *122:17 *124:9 0
13 *122:17 *124:17 0.0575375
14 *122:17 *127:9 0.000485131
15 *122:17 *131:9 0.000191633
16 *122:17 *133:29 0.0062164
17 *122:17 *136:9 0.000257136
18 *122:25 io_out[25] 0.000322558
19 io_oeb[35] *122:15 0
20 *46:11 io_out[24] 0.000204598
21 *46:11 *122:25 0.0239035
22 *46:19 *122:17 0
23 *47:11 *122:25 0.000179499
24 *47:19 *122:17 0
25 *47:41 *122:9 0.00120559
26 *48:9 *122:23 0
27 *48:19 *122:17 0
28 *51:25 *122:17 0.00703196
29 *57:19 *122:9 0.00354117
30 *74:21 *122:15 8.30179e-05
31 *84:26 *122:17 0
32 *84:34 *122:25 0.0288338
33 *85:22 *122:17 0
34 *85:30 *122:17 0.00306299
35 *85:30 *122:25 0.00932513
36 *86:17 *122:17 0
37 *87:17 *122:17 0.00565287
38 *89:19 *122:17 0.000361891
39 *92:9 *122:17 0.0033236
40 *92:17 *122:17 0.014439
41 *93:19 *122:17 0.0100014
42 *116:21 *122:15 1.90269e-05
43 *121:7 *122:9 0
44 *121:9 *122:17 0.00345117
*RES
1 *897:io_out[17] *122:9 48.7808 
2 *122:9 *122:15 8.1642 
3 *122:15 *122:17 2216.8 
4 *122:17 *122:23 6.9751 
5 *122:23 *122:25 70.359 
6 *122:25 io_out[24] 3.85963 
*END

*D_NET *123 0.300299
*CONN
*P io_out[25] O
*I *897:io_out[18] O *D soc_sys
*CAP
1 io_out[25] 0.00134216
2 *897:io_out[18] 0.000795383
3 *123:17 0.117903
4 *123:15 0.117067
5 *123:9 0.00370996
6 *123:7 0.00399941
7 *123:7 *124:7 0
8 *123:9 *124:9 0.00280948
9 *123:9 *132:17 0.000837167
10 *123:9 *133:17 0.0041136
11 *123:15 *127:15 0.000814057
12 *897:io_in[28] *123:9 0.000187857
13 *45:21 *123:17 0.00943377
14 *47:19 *123:9 3.04851e-05
15 *47:39 *123:15 0.00136275
16 *48:27 *123:9 0.000251367
17 *48:33 *123:9 0.000216276
18 *48:35 *123:9 0.000386284
19 *58:19 *123:9 0.000171395
20 *74:23 *123:9 0.00348866
21 *76:53 *123:9 0.00213453
22 *83:15 *123:9 0.00316154
23 *85:20 *123:15 0.000133765
24 *87:33 *123:17 0
25 *88:6 *123:17 0
26 *89:25 *123:15 0.000137669
27 *89:27 *123:17 0.0122066
28 *94:15 *123:9 0.00108444
29 *97:15 *123:9 0.00150322
30 *98:17 *123:9 0.0106946
31 *103:15 *123:9 0
32 *122:9 *123:7 0
33 *122:25 io_out[25] 0.000322558
*RES
1 *897:io_out[18] *123:7 5.055 
2 *123:7 *123:9 207.161 
3 *123:9 *123:15 9.20917 
4 *123:15 *123:17 389.32 
5 *123:17 io_out[25] 6.93343 
*END

*D_NET *124 0.498446
*CONN
*P io_out[26] O
*I *897:io_out[19] O *D soc_sys
*CAP
1 io_out[26] 0.000217137
2 *897:io_out[19] 0.000862951
3 *124:17 0.0257999
4 *124:15 0.0257679
5 *124:9 0.0129595
6 *124:7 0.0136373
7 *124:9 io_out[36] 0.000346109
8 *124:9 *130:9 0.0391095
9 *124:9 *130:17 0.0047347
10 *124:9 *132:17 0.00492446
11 *124:17 io_out[29] 0.000322558
12 *124:17 io_out[31] 0.000322558
13 *124:17 *130:17 1.00926e-05
14 io_oeb[27] *124:17 0.000322558
15 io_oeb[28] *124:17 0.000322558
16 io_oeb[31] *124:17 0.000322558
17 io_oeb[32] *124:15 0.000357045
18 io_oeb[32] *124:17 0.000322558
19 io_oeb[34] *124:9 0.00135149
20 io_oeb[35] *124:9 0.000105594
21 *17:9 *124:17 0.000322558
22 *47:19 *124:9 0
23 *48:43 *124:9 0.000823677
24 *49:17 *124:17 0.000322558
25 *50:9 *124:17 0.000322558
26 *54:13 *124:17 0.000246133
27 *55:9 *124:17 0.000322558
28 *84:34 *124:17 0.00442518
29 *85:22 *124:9 0.043091
30 *85:30 io_out[26] 0.000204598
31 *85:30 *124:17 0.102629
32 *86:17 *124:9 0.00307243
33 *86:25 *124:17 0.117634
34 *92:17 *124:17 0.0196194
35 *94:15 *124:9 0.00108989
36 *97:15 *124:9 0.00144767
37 *98:17 *124:9 0.0104063
38 *122:17 *124:9 0
39 *122:17 *124:17 0.0575375
40 *123:7 *124:7 0
41 *123:9 *124:9 0.00280948
*RES
1 *897:io_out[19] *124:7 5.19913 
2 *124:7 *124:9 733.554 
3 *124:9 *124:15 7.4075 
4 *124:15 *124:17 255.407 
5 *124:17 io_out[26] 3.85963 
*END

*D_NET *125 0.305411
*CONN
*P io_out[27] O
*I *897:io_out[20] O *D soc_sys
*CAP
1 io_out[27] 0.00518226
2 *897:io_out[20] 0.0228434
3 *125:34 0.12024
4 *125:32 0.119618
5 *125:28 0.0274032
6 *125:28 *126:20 3.26217e-05
7 *125:28 *598:17 0.00386453
8 *125:28 *630:16 0.000147713
9 *897:io_in[26] *125:28 0.00211399
10 *73:21 *125:32 0
11 *75:30 *125:28 0
12 *78:19 *125:32 0.00347977
13 *104:16 *125:28 0.000172289
14 *116:21 *125:28 0.000312804
15 *121:25 *125:34 0
*RES
1 *897:io_out[20] *125:28 48.6856 
2 *125:28 *125:32 20.3206 
3 *125:32 *125:34 306.65 
4 *125:34 io_out[27] 17.3361 
*END

*D_NET *126 0.342671
*CONN
*P io_out[28] O
*I *897:io_out[21] O *D soc_sys
*CAP
1 io_out[28] 0.00526939
2 *897:io_out[21] 0.0207109
3 *126:22 0.0401551
4 *126:20 0.0555966
5 *126:20 *897:wb_clk_i 0.00126942
6 *126:20 *897:wb_rst_i 0.00127273
7 *126:20 *542:28 0.000143889
8 *126:20 *576:13 0
9 *126:22 *129:51 0.0885187
10 *56:15 *126:20 0
11 *104:16 *126:20 4.26254e-05
12 *120:12 *126:20 0.00205159
13 *121:25 *126:22 0.127607
14 *125:28 *126:20 3.26217e-05
*RES
1 *897:io_out[21] *126:20 49.7836 
2 *126:20 *126:22 266.487 
3 *126:22 io_out[28] 18.2009 
*END

*D_NET *127 0.316431
*CONN
*P io_out[29] O
*I *897:io_out[22] O *D soc_sys
*CAP
1 io_out[29] 0.00114378
2 *897:io_out[22] 0.000895742
3 *127:17 0.0532188
4 *127:15 0.0525669
5 *127:9 0.00337824
6 *127:7 0.00378205
7 *127:9 *130:9 0.00508512
8 *127:9 *133:29 0.000685581
9 *46:35 *127:17 0.0231966
10 *46:49 *127:7 0.000196888
11 *48:43 *127:9 0.00245855
12 *50:19 *127:17 0.0207407
13 *86:17 *127:9 0.00411491
14 *87:25 *127:17 0.0179473
15 *87:33 *127:17 0.0239763
16 *88:6 *127:17 0.000244531
17 *89:25 *127:15 0.00101276
18 *91:11 *127:17 0.0836923
19 *92:9 *127:9 0.00594636
20 *94:17 *127:9 0.000861975
21 *97:15 *127:9 0.000859612
22 *116:21 *127:9 0.0002652
23 *121:9 *127:9 0.00853928
24 *122:17 *127:9 0.000485131
25 *123:15 *127:15 0.000814057
26 *124:17 io_out[29] 0.000322558
*RES
1 *897:io_out[22] *127:7 5.41533 
2 *127:7 *127:9 193.196 
3 *127:9 *127:15 8.56057 
4 *127:15 *127:17 225.791 
5 *127:17 io_out[29] 5.9245 
*END

*D_NET *129 0.238095
*CONN
*P io_out[30] O
*I *897:io_out[23] O *D soc_sys
*CAP
1 io_out[30] 0.00545011
2 *897:io_out[23] 0.00936976
3 *129:51 0.0436358
4 *129:49 0.0381857
5 *129:47 0.00919016
6 *129:27 0.0185599
7 *129:27 io_out[35] 6.90381e-06
8 *129:27 *133:15 0.000106511
9 *129:47 *897:wb_clk_i 0.00271691
10 *129:47 *897:wb_rst_i 0.00187886
11 *129:47 *897:wbs_adr_i[0] 0.000303744
12 *129:47 *897:wbs_sel_i[0] 9.5164e-05
13 *129:47 *542:28 0.00127272
14 *129:47 *554:31 0.00717728
15 *129:47 *576:13 3.10989e-06
16 *129:47 *608:25 0.00131212
17 *129:51 *897:wbs_we_i 4.18722e-05
18 *46:43 *129:27 0.000442552
19 *46:49 *129:27 8.59477e-05
20 *50:19 *129:27 0.00128491
21 *78:19 *129:47 0.00118668
22 *104:16 *129:27 0.000100289
23 *105:27 *129:27 0.00226281
24 *116:21 *129:27 0.004867
25 *121:25 *129:51 3.9657e-05
26 *126:22 *129:51 0.0885187
*RES
1 *897:io_out[23] *129:27 31.3414 
2 *129:27 *129:47 48.5663 
3 *129:47 *129:49 3.41 
4 *129:49 *129:51 185.095 
5 *129:51 io_out[30] 18.345 
*END

*D_NET *130 0.191163
*CONN
*P io_out[31] O
*I *897:io_out[24] O *D soc_sys
*CAP
1 io_out[31] 0.000442855
2 *897:io_out[24] 0.000920888
3 *130:17 0.0146874
4 *130:15 0.0142954
5 *130:9 0.00648667
6 *130:7 0.00735665
7 *130:7 *131:7 0
8 *130:9 io_out[36] 0.000121549
9 *130:9 *132:17 0.00454929
10 *130:17 *132:17 0.00516238
11 io_oeb[34] *130:9 0.00206656
12 *46:49 *130:7 0
13 *48:11 *130:17 0.000263466
14 *48:17 io_out[31] 1.52655e-05
15 *48:19 *130:17 0.00558769
16 *48:43 *130:9 0.00187262
17 *54:13 *130:17 0.0054584
18 *55:11 *130:17 0.00114663
19 *84:26 *130:17 0.00483389
20 *85:22 *130:17 0.0041481
21 *85:30 *130:17 0.0024492
22 *86:17 *130:9 0.0281268
23 *86:17 *130:17 0.001064
24 *92:17 *130:17 0.0210279
25 *93:27 *130:17 0.00784474
26 *94:17 *130:17 0.000229636
27 *97:15 *130:9 0.001743
28 *124:9 *130:9 0.0391095
29 *124:9 *130:17 0.0047347
30 *124:17 io_out[31] 0.000322558
31 *124:17 *130:17 1.00926e-05
32 *127:9 *130:9 0.00508512
*RES
1 *897:io_out[24] *130:7 5.2712 
2 *130:7 *130:9 480.375 
3 *130:9 *130:15 6.90303 
4 *130:15 *130:17 92.4114 
5 *130:17 io_out[31] 4.33903 
*END

*D_NET *131 0.116027
*CONN
*P io_out[32] O
*I *897:io_out[25] O *D soc_sys
*CAP
1 io_out[32] 0.00313279
2 *897:io_out[25] 0.00114083
3 *131:25 0.0436145
4 *131:23 0.0434145
5 *131:9 0.00472697
6 *131:7 0.00293507
7 *131:7 *132:7 0
8 *131:9 *132:9 0.0051512
9 io_oeb[34] *131:23 0
10 *45:47 *131:7 0.000126985
11 *47:39 *131:23 4.95909e-06
12 *51:11 *131:25 0
13 *51:23 *131:23 9.08957e-06
14 *51:25 *131:9 0.00826959
15 *76:51 *131:23 0.000501393
16 *80:20 *131:23 9.40346e-05
17 *85:20 *131:23 0.000732999
18 *87:17 *131:9 0.000854583
19 *88:6 *131:23 3.35973e-05
20 *93:17 *131:23 8.77988e-05
21 *94:15 *131:23 0.00100416
22 *122:17 *131:9 0.000191633
23 *130:7 *131:7 0
*RES
1 *897:io_out[25] *131:7 5.77567 
2 *131:7 *131:9 116.089 
3 *131:9 *131:23 11.0294 
4 *131:23 *131:25 115.103 
5 *131:25 io_out[32] 11.3702 
*END

*D_NET *132 0.113679
*CONN
*P io_out[33] O
*I *897:io_out[26] O *D soc_sys
*CAP
1 io_out[33] 0.000451952
2 *897:io_out[26] 0.00117503
3 *132:17 0.00882396
4 *132:15 0.00878441
5 *132:9 0.00470292
6 *132:7 0.00546556
7 *132:7 *133:15 0
8 io_oeb[34] *132:17 0.00969735
9 *45:47 *132:7 0.000126985
10 *57:11 *132:17 0.00523601
11 *84:26 *132:17 0.0071172
12 *85:22 *132:17 0.00636114
13 *86:13 *132:15 3.72773e-05
14 *86:23 io_out[33] 0
15 *87:17 *132:9 0.000317068
16 *89:19 *132:9 0.000368954
17 *93:17 *132:15 0
18 *93:27 *132:17 0.0241178
19 *94:17 *132:17 0.0102712
20 *97:15 *132:7 0
21 *123:9 *132:17 0.000837167
22 *124:9 *132:17 0.00492446
23 *130:9 *132:17 0.00454929
24 *130:17 *132:17 0.00516238
25 *131:7 *132:7 0
26 *131:9 *132:9 0.0051512
*RES
1 *897:io_out[26] *132:7 5.9198 
2 *132:7 *132:9 130.054 
3 *132:9 *132:15 7.6237 
4 *132:15 *132:17 70.9982 
5 *132:17 io_out[33] 4.37663 
*END

*D_NET *133 0.06476
*CONN
*P io_out[34] O
*I *897:io_out[27] O *D soc_sys
*CAP
1 io_out[34] 0.000215124
2 *897:io_out[27] 0.000746409
3 *133:29 0.0081026
4 *133:17 0.00865664
5 *133:15 0.00151557
6 *133:15 *136:7 0.000754211
7 *133:29 io_out[35] 0.000418193
8 io_oeb[34] *133:29 0.000270209
9 io_oeb[35] *133:29 0.0046269
10 *46:43 *133:15 0.000498714
11 *48:35 *133:17 0.00227391
12 *48:41 *133:15 0.000117739
13 *50:19 *133:15 0.000440213
14 *51:25 *133:29 0.000584448
15 *58:19 *133:17 0.00100133
16 *58:19 *133:29 0.00251232
17 *87:17 *133:29 0.00135978
18 *92:9 *133:29 0.00306542
19 *92:17 io_out[34] 0.000204598
20 *92:17 *133:29 7.59294e-05
21 *93:19 *133:29 0.00207761
22 *94:17 *133:29 0.0134358
23 *103:13 *133:15 0.000188331
24 *103:15 *133:17 1.37595e-05
25 *121:9 *133:29 0.000482095
26 *122:17 *133:29 0.0062164
27 *123:9 *133:17 0.0041136
28 *127:9 *133:29 0.000685581
29 *129:27 *133:15 0.000106511
30 *132:7 *133:15 0
*RES
1 *897:io_out[27] *133:15 23.5106 
2 *133:15 *133:17 50.5179 
3 *133:17 *133:29 49.0996 
4 *133:29 io_out[34] 3.85963 
*END

*D_NET *134 0.0121072
*CONN
*P io_out[35] O
*I *897:io_out[28] O *D soc_sys
*CAP
1 io_out[35] 0.00391455
2 *897:io_out[28] 0.00391455
3 io_out[35] io_out[36] 4.23516e-05
4 io_oeb[35] io_out[35] 0.00256472
5 *51:25 io_out[35] 0.000958382
6 *97:15 io_out[35] 7.53428e-05
7 *116:21 io_out[35] 0.000212197
8 *122:15 io_out[35] 0
9 *129:27 io_out[35] 6.90381e-06
10 *133:29 io_out[35] 0.000418193
*RES
1 *897:io_out[28] io_out[35] 20.2996 
*END

*D_NET *135 0.0239431
*CONN
*P io_out[36] O
*I *897:io_out[29] O *D soc_sys
*CAP
1 io_out[36] 0.00430695
2 *897:io_out[29] 0.00430695
3 io_out[36] io_out[37] 0.000452188
4 io_out[36] *136:7 0
5 io_out[36] *136:9 0.000363265
6 io_out[35] io_out[36] 4.23516e-05
7 *897:io_in[26] io_out[36] 0.0013731
8 *897:io_in[28] io_out[36] 0.00476947
9 *897:io_in[29] io_out[36] 0.000563329
10 *897:io_in[30] io_out[36] 1.42542e-05
11 *74:21 io_out[36] 5.52879e-05
12 *97:15 io_out[36] 0.000529752
13 *98:27 io_out[36] 0
14 *109:9 io_out[36] 0.000432664
15 *116:21 io_out[36] 0.00526888
16 *121:9 io_out[36] 0.000404499
17 *122:15 io_out[36] 0.000592473
18 *124:9 io_out[36] 0.000346109
19 *130:9 io_out[36] 0.000121549
*RES
1 *897:io_out[29] io_out[36] 29.4019 
*END

*D_NET *136 0.0643426
*CONN
*P io_out[37] O
*I *897:io_out[30] O *D soc_sys
*CAP
1 io_out[37] 0.00474947
2 *897:io_out[30] 0.000596298
3 *136:9 0.00654851
4 *136:7 0.00239534
5 io_oeb[35] *136:7 9.34324e-05
6 io_out[36] io_out[37] 0.000452188
7 io_out[36] *136:7 0
8 io_out[36] *136:9 0.000363265
9 *897:io_in[0] io_out[37] 0
10 *897:io_in[26] *136:9 0.000601102
11 *897:io_in[30] io_out[37] 0.0101693
12 *39:41 io_out[37] 0.000465354
13 *43:37 io_out[37] 0.000571658
14 *48:41 *136:7 0.000103374
15 *48:43 io_out[37] 0.00013668
16 *48:43 *136:9 0.000832713
17 *51:25 io_out[37] 0.000375731
18 *51:25 *136:9 0.00384611
19 *74:21 *136:7 0.000860218
20 *74:41 io_out[37] 0.00156923
21 *98:27 io_out[37] 0.0143016
22 *103:13 *136:7 3.86139e-05
23 *110:9 io_out[37] 0.00217475
24 *110:9 *136:9 0.00228026
25 *113:9 io_out[37] 0.000795004
26 *113:9 *136:9 0.00316932
27 *114:17 io_out[37] 0.000857026
28 *116:21 *136:9 0.000786227
29 *121:9 *136:9 0.00415134
30 *122:15 *136:7 4.71639e-05
31 *122:17 *136:9 0.000257136
32 *133:15 *136:7 0.000754211
*RES
1 *897:io_out[30] *136:7 5.55947 
2 *136:7 *136:9 115.482 
3 *136:9 io_out[37] 41.7419 
*END

*D_NET *141 0.666035
*CONN
*P io_out[7] O
*I *897:io_out[0] O *D soc_sys
*CAP
1 io_out[7] 0.000213232
2 *897:io_out[0] 0.00666172
3 *141:25 0.0195631
4 *141:23 0.0193498
5 *141:21 0.0482353
6 *141:19 0.0482501
7 *141:13 0.0468679
8 *141:11 0.0535148
9 *141:11 *142:16 0.0136108
10 *141:11 *143:17 0.000479211
11 *141:11 *143:37 0.000381665
12 *141:13 *898:wbs_adr_i[0] 0.000786819
13 *141:13 *898:wbs_adr_i[10] 0.000232976
14 *141:13 *143:39 0
15 *141:13 *544:17 0.00437953
16 *141:13 *549:15 0.0175091
17 *141:13 *552:15 0.00384358
18 *141:13 *558:19 0
19 *141:13 *561:15 0.00679026
20 *141:13 *571:17 0.00298154
21 *141:13 *573:17 0
22 *141:13 *596:15 0.00987004
23 *141:13 *597:15 0.0019582
24 *141:13 *642:21 0.00213492
25 *141:13 *788:11 6.17646e-05
26 *141:13 *792:19 0.00245331
27 *141:13 *795:19 0.000108891
28 *141:13 *824:19 0.000229898
29 *141:13 *829:19 0.00020908
30 *141:13 *865:19 0.00131594
31 *141:19 *866:9 1.90936e-05
32 *141:21 *898:wbs_dat_i[3] 0.00274277
33 *141:21 *143:47 0.155605
34 *141:21 *791:21 0
35 *141:21 *792:21 0
36 *141:21 *793:17 0
37 *141:21 *853:11 0.000259202
38 *141:25 *142:30 0.0551876
39 *897:io_in[1] *141:11 0.00211632
40 *24:9 *141:25 0.00272217
41 *26:9 *141:25 0.00738
42 *65:9 *141:25 0.100823
43 *66:9 *141:25 0.0230563
44 *69:25 *141:25 0.00155762
45 *104:18 *141:11 0.00113808
46 *113:13 *141:13 0
47 *118:11 *141:11 0.00143513
*RES
1 *897:io_out[0] *141:11 38.4996 
2 *141:11 *141:13 196.176 
3 *141:13 *141:19 8.18679 
4 *141:19 *141:21 1472.95 
5 *141:21 *141:23 4.5 
6 *141:23 *141:25 1301.08 
7 *141:25 io_out[7] 3.7578 
*END

*D_NET *142 0.861009
*CONN
*P io_out[8] O
*I *897:io_out[1] O *D soc_sys
*CAP
1 io_out[8] 0.000103389
2 *897:io_out[1] 0.00952198
3 *142:30 0.0221021
4 *142:28 0.0219987
5 *142:26 0.0462294
6 *142:24 0.0463088
7 *142:18 0.0239924
8 *142:16 0.033435
9 *142:16 *143:17 0.000760873
10 *142:18 *898:wbs_adr_i[0] 0
11 *142:18 *791:19 0.000132816
12 *142:18 *794:19 0.00284125
13 *142:24 *857:9 0
14 *142:24 *890:9 0
15 *142:26 *898:wbs_adr_i[22] 0.000851796
16 *142:26 *898:wbs_adr_i[4] 0.00113236
17 *142:26 *898:wbs_dat_i[27] 0.000489997
18 *142:26 *541:35 0
19 *142:26 *798:13 0
20 *142:26 *808:21 0
21 *142:26 *819:21 0
22 *142:26 *820:21 0
23 *142:26 *845:9 0.00206799
24 *142:26 *883:21 0
25 *897:io_in[27] *142:16 5.9504e-05
26 *897:io_in[28] *142:16 0.000140991
27 *26:9 *142:30 0.0267113
28 *32:25 *142:16 0.00102775
29 *40:37 *142:16 0.00102775
30 *65:13 *142:26 0.154534
31 *65:21 *142:18 0.123189
32 *66:9 *142:30 0.022082
33 *71:33 *142:30 0.0063507
34 *104:16 *142:16 0.000209646
35 *104:18 *142:16 0.000248195
36 *108:17 *142:30 0.124231
37 *113:13 *142:18 0.119853
38 *113:21 *142:26 0.000338394
39 *118:11 *142:16 0.000238742
40 *141:11 *142:16 0.0136108
41 *141:25 *142:30 0.0551876
*RES
1 *897:io_out[1] *142:16 45.2146 
2 *142:16 *142:18 196.897 
3 *142:18 *142:24 9.0975 
4 *142:24 *142:26 1470.48 
5 *142:26 *142:28 4.5 
6 *142:28 *142:30 1531.49 
7 *142:30 io_out[8] 3.61367 
*END

*D_NET *143 0.765904
*CONN
*P io_out[9] O
*I *897:io_out[2] O *D soc_sys
*CAP
1 io_out[9] 0.000833501
2 *897:io_out[2] 0.00100592
3 *143:51 0.0550458
4 *143:49 0.0542123
5 *143:47 0.0420059
6 *143:45 0.042184
7 *143:39 0.0512815
8 *143:37 0.0577678
9 *143:19 0.00793014
10 *143:17 0.00227159
11 *143:39 *549:15 0.00144211
12 *143:39 *552:15 0.00517963
13 *143:39 *556:15 0
14 *143:39 *559:21 0
15 *143:39 *561:15 0.00332242
16 *143:39 *571:17 0.0160596
17 *143:39 *597:15 0.0517991
18 *143:39 *622:14 0
19 *143:39 *639:16 0
20 *143:39 *788:11 0.00187178
21 *143:39 *824:19 0.000305991
22 *143:39 *826:19 0.00176711
23 *143:45 *850:13 9.07058e-05
24 *143:45 *887:9 5.66672e-05
25 *143:47 *829:9 0.000831416
26 *143:47 *837:9 0.0291022
27 *143:47 *853:11 0.00357739
28 *143:47 *865:21 0
29 io_oeb[36] *143:19 0.000592337
30 *897:io_in[17] *143:19 0.00124503
31 *897:io_in[1] *143:37 1.4392e-05
32 *897:io_in[29] *143:17 3.90851e-05
33 *897:io_in[30] *143:17 0.000213056
34 *897:io_in[7] *143:37 8.22844e-05
35 *897:io_in[8] *143:37 7.2771e-05
36 *31:9 *143:51 0.00596225
37 *32:9 *143:51 0.000685498
38 *39:37 *143:39 0
39 *44:29 *143:19 0.00222676
40 *45:49 *143:19 0.00399909
41 *74:31 *143:19 0.00290942
42 *104:16 *143:17 0.000120617
43 *105:33 *143:51 0.0159852
44 *107:7 *143:17 0
45 *107:25 *143:51 0.14364
46 *108:9 *143:19 0.00016293
47 *112:15 *143:17 0.00078251
48 *141:11 *143:17 0.000479211
49 *141:11 *143:37 0.000381665
50 *141:13 *143:39 0
51 *141:21 *143:47 0.155605
52 *142:16 *143:17 0.000760873
*RES
1 *897:io_out[2] *143:17 14.037 
2 *143:17 *143:19 80.2679 
3 *143:19 *143:37 30.0092 
4 *143:37 *143:39 194.159 
5 *143:39 *143:45 11.5261 
6 *143:45 *143:47 1466.38 
7 *143:47 *143:49 4.5 
8 *143:49 *143:51 1775.56 
9 *143:51 io_out[9] 5.4874 
*END

*D_NET *528 0.497624
*CONN
*P user_clock2 I
*I *892:refclk I *D CF_ADC_SAR12
*CAP
1 user_clock2 0.00155394
2 *892:refclk 0.000286678
3 *528:19 0.0227741
4 *528:17 0.0224875
5 *528:15 0.0669983
6 *528:13 0.0669983
7 *528:11 0.0266692
8 *528:9 0.0282231
9 *528:15 *754:13 0.0366588
10 *892:VPUMP *528:19 0.0110397
11 *20:17 *528:19 3.26217e-05
12 *31:9 *528:11 0.0122555
13 *33:9 *528:11 0
14 *35:9 *528:11 0
15 *70:18 *528:15 0.201646
*RES
1 user_clock2 *528:9 31.8482 
2 *528:9 *528:11 547.018 
3 *528:11 *528:13 3.41 
4 *528:13 *528:15 320.852 
5 *528:15 *528:17 3.41 
6 *528:17 *528:19 81.1189 
7 *528:19 *892:refclk 11.6269 
*END

*D_NET *529 0.319154
*CONN
*P user_irq[0] O
*I *897:user_irq[0] O *D soc_sys
*CAP
1 user_irq[0] 8.88893e-05
2 *897:user_irq[0] 0.00531303
3 *529:9 0.0614537
4 *529:7 0.0613648
5 *529:5 0.00531303
6 *529:9 *530:11 0.181234
7 *529:9 *631:14 0.00438665
*RES
1 *897:user_irq[0] *529:5 102.67 
2 *529:5 *529:7 3.41 
3 *529:7 *529:9 294.079 
4 *529:9 user_irq[0] 5.02607 
*END

*D_NET *530 0.423198
*CONN
*P user_irq[1] O
*I *897:user_irq[1] O *D soc_sys
*CAP
1 user_irq[1] 8.5297e-05
2 *897:user_irq[1] 0.000109955
3 *530:11 0.0259075
4 *530:9 0.0258222
5 *530:7 0.00520976
6 *530:5 0.00531972
7 *530:11 *531:9 0.174301
8 *530:11 *631:14 0.00520939
9 *529:9 *530:11 0.181234
*RES
1 *897:user_irq[1] *530:5 0.883929 
2 *530:5 *530:7 102.125 
3 *530:7 *530:9 3.41 
4 *530:9 *530:11 282.981 
5 *530:11 user_irq[1] 5.11536 
*END

*D_NET *531 0.299463
*CONN
*P user_irq[2] O
*I *897:user_irq[2] O *D soc_sys
*CAP
1 user_irq[2] 6.33454e-05
2 *897:user_irq[2] 0.00511751
3 *531:9 0.0569621
4 *531:7 0.0568988
5 *531:5 0.00511751
6 *531:5 *600:15 0.000574639
7 *531:5 *632:18 0.000427824
8 *530:11 *531:9 0.174301
*RES
1 *897:user_irq[2] *531:5 101.455 
2 *531:5 *531:7 3.41 
3 *531:7 *531:9 272.387 
4 *531:9 user_irq[2] 4.70464 
*END

*D_NET *540 0.483892
*CONN
*P wb_clk_i I
*I *898:wb_clk_i I *D CF_SRAM_1024x32_wb_wrapper
*I *897:wb_clk_i I *D soc_sys
*CAP
1 wb_clk_i 0.00139705
2 *898:wb_clk_i 9.50924e-05
3 *897:wb_clk_i 0.00538966
4 *540:58 0.0041325
5 *540:56 0.00409078
6 *540:50 0.0176026
7 *540:48 0.0178232
8 *540:33 0.00776403
9 *540:23 0.0270869
10 *540:21 0.0247125
11 *540:19 0.00536314
12 *540:17 0.00508915
13 *540:15 0.00478186
14 *540:13 0.00617891
15 *897:wb_clk_i *897:wb_rst_i 0.00289749
16 *897:wb_clk_i *897:wbs_adr_i[0] 0.0014358
17 *897:wb_clk_i *897:wbs_adr_i[2] 0.000766948
18 *897:wb_clk_i *897:wbs_adr_i[3] 0.000299805
19 *897:wb_clk_i *897:wbs_cyc_i 9.5164e-05
20 *897:wb_clk_i *897:wbs_dat_i[1] 0.000964475
21 *897:wb_clk_i *897:wbs_sel_i[1] 4.98422e-05
22 *897:wb_clk_i *897:wbs_sel_i[2] 9.5164e-05
23 *897:wb_clk_i *897:wbs_stb_i 0.000781463
24 *897:wb_clk_i *897:wbs_we_i 0.000629248
25 *897:wb_clk_i *542:28 0.0111327
26 *897:wb_clk_i *554:31 9.31015e-05
27 *897:wb_clk_i *619:8 9.5164e-05
28 *897:wb_clk_i *630:16 0.00157512
29 *540:13 *541:13 0.00266841
30 *540:19 *541:21 0.000409751
31 *540:19 *541:27 0.0186782
32 *540:19 *542:36 0.000132385
33 *540:19 *640:17 0.008
34 *540:19 *646:30 0.0286211
35 *540:23 *635:10 0
36 *540:33 *897:wbs_adr_i[3] 0.00911752
37 *540:33 *897:wbs_adr_i[4] 9.5164e-05
38 *540:33 *897:wbs_adr_i[5] 9.5164e-05
39 *540:33 *897:wbs_adr_i[6] 0.000380104
40 *540:33 *897:wbs_dat_i[3] 0.000685406
41 *540:33 *897:wbs_dat_i[4] 0.00085302
42 *540:33 *897:wbs_dat_i[5] 0.000934988
43 *540:33 *897:wbs_sel_i[3] 0.000944536
44 *540:33 *633:8 9.5164e-05
45 *540:33 *634:16 0.00105143
46 *540:33 *635:8 9.5164e-05
47 *540:48 *541:27 0.000562808
48 *540:48 *646:30 0.000583746
49 *540:50 *897:adc_data[4] 0.00651747
50 *540:50 *898:wbs_adr_i[5] 0.00011802
51 *540:50 *898:wbs_dat_i[2] 0.00383318
52 *540:50 *898:wbs_dat_i[7] 0.000120623
53 *540:50 *898:wbs_sel_i[0] 0.000344053
54 *540:50 *646:22 0.00804684
55 *540:50 *647:31 0.00423239
56 *540:50 *647:33 0.0218211
57 *540:50 *649:17 0.00867196
58 *540:50 *649:25 0.045597
59 *540:50 *650:35 7.30306e-05
60 *540:50 *650:45 6.06458e-05
61 *540:50 *819:19 0.000240163
62 *540:56 *821:9 4.31629e-05
63 *540:56 *822:13 0.000139714
64 *540:58 *898:wbs_stb_i 0.00212947
65 *540:58 *863:19 4.00679e-05
66 *40:25 *540:50 0.0181413
67 *43:33 *540:19 0.00122656
68 *78:19 *897:wb_clk_i 0.00256108
69 *78:21 *897:wb_clk_i 0.000333831
70 *78:21 *540:33 0.00262584
71 *84:24 *897:wb_clk_i 0.000662656
72 *104:22 *540:50 0.0873596
73 *107:21 *540:50 0.000863268
74 *109:19 *540:19 0.000204407
75 *109:21 *540:58 0.0123943
76 *112:33 *540:50 0.0192812
77 *114:27 *540:19 0.00103847
78 *118:43 *540:19 0.00452068
79 *118:43 *540:48 0.000115959
80 *118:43 *540:50 0.000124839
81 *126:20 *897:wb_clk_i 0.00126942
82 *129:47 *897:wb_clk_i 0.00271691
*RES
1 wb_clk_i *540:13 44.9286 
2 *540:13 *540:15 95.2946 
3 *540:15 *540:17 3.41 
4 *540:17 *540:19 47.2146 
5 *540:19 *540:21 3.41 
6 *540:21 *540:23 78.349 
7 *540:23 *540:33 27.3807 
8 *540:33 *897:wb_clk_i 35.0222 
9 *540:19 *540:48 8.31147 
10 *540:48 *540:50 147.171 
11 *540:50 *540:56 9.70464 
12 *540:56 *540:58 117.179 
13 *540:58 *898:wb_clk_i 5.98214 
*END

*D_NET *541 0.390126
*CONN
*P wb_rst_i I
*I *897:wb_rst_i I *D soc_sys
*I *898:wb_rst_i I *D CF_SRAM_1024x32_wb_wrapper
*CAP
1 wb_rst_i 0.00146353
2 *897:wb_rst_i 0.00274473
3 *898:wb_rst_i 0.000192413
4 *541:45 0.0273444
5 *541:35 0.00365523
6 *541:33 0.00347442
7 *541:27 0.0232235
8 *541:25 0.0234048
9 *541:21 0.0267314
10 *541:15 0.0068148
11 *541:13 0.00633953
12 *897:wb_rst_i *897:wbs_adr_i[0] 0.00351722
13 *897:wb_rst_i *542:28 0.0052397
14 *898:wb_rst_i *788:11 0
15 *541:21 *542:36 0.0107378
16 *541:21 *646:30 0.00997593
17 *541:27 *897:adc_data[4] 0.00821856
18 *541:27 *897:adc_data[6] 0.0193626
19 *541:27 *898:wbs_adr_i[6] 0.00141042
20 *541:27 *898:wbs_cyc_i 0.00115112
21 *541:27 *898:wbs_dat_i[7] 0.000581227
22 *541:27 *646:30 0.0130268
23 *541:27 *651:41 0.0169211
24 *541:27 *655:33 0.0466513
25 *541:27 *656:29 0.0108705
26 *541:27 *658:25 0.0297742
27 *541:27 *808:19 0.00572713
28 *541:33 *898:wbs_adr_i[3] 4.01462e-06
29 *541:33 *806:17 2.30116e-06
30 *541:33 *828:15 2.11419e-05
31 *541:35 *898:wbs_cyc_i 0.00239828
32 *541:35 *808:21 7.457e-05
33 *541:35 *819:21 0.0111534
34 *541:45 *554:15 0
35 *541:45 *554:31 0.00120053
36 *541:45 *630:18 0
37 *897:wb_clk_i *897:wb_rst_i 0.00289749
38 *43:33 *541:27 0.02694
39 *51:11 *897:wb_rst_i 0.000153096
40 *78:19 *897:wb_rst_i 0.000507238
41 *84:24 *897:wb_rst_i 0.00191328
42 *85:20 *897:wb_rst_i 9.21616e-05
43 *109:21 *541:27 0.00374665
44 *114:27 *541:15 0
45 *118:43 *541:21 0.00160035
46 *118:43 *541:27 0.00339683
47 *126:20 *897:wb_rst_i 0.00127273
48 *129:47 *897:wb_rst_i 0.00187886
49 *142:26 *541:35 0
50 *540:13 *541:13 0.00266841
51 *540:19 *541:21 0.000409751
52 *540:19 *541:27 0.0186782
53 *540:48 *541:27 0.000562808
*RES
1 wb_rst_i *541:13 45.8571 
2 *541:13 *541:15 96.8125 
3 *541:15 *541:21 23.6946 
4 *541:21 *541:25 3.7766 
5 *541:25 *541:27 179.385 
6 *541:27 *541:33 8.18679 
7 *541:33 *541:35 107.732 
8 *541:35 *898:wb_rst_i 7.14286 
9 *541:21 *541:45 77.9229 
10 *541:45 *897:wb_rst_i 30.6399 
*END

*D_NET *542 0.139455
*CONN
*P wbs_ack_o O
*I *897:wbs_ack_o O *D soc_sys
*CAP
1 wbs_ack_o 0.00155059
2 *897:wbs_ack_o 0.00477167
3 *542:38 0.00488764
4 *542:36 0.00702947
5 *542:30 0.0289886
6 *542:28 0.0300678
7 *542:28 *897:wbs_adr_i[0] 0.000469638
8 *542:28 *608:25 0.00108971
9 *542:28 *630:16 0.00347556
10 *542:36 *644:17 0.00458892
11 *542:36 *646:30 0.00284697
12 *542:36 *649:25 0.00866031
13 *542:36 *650:45 0.00114766
14 *897:io_in[1] *542:38 0.000113898
15 *897:wb_clk_i *542:28 0.0111327
16 *897:wb_rst_i *542:28 0.0052397
17 *31:23 *542:38 0
18 *32:25 *542:38 0.000675987
19 *35:25 *542:38 0
20 *36:21 *542:38 0
21 *40:35 *542:36 0.00029686
22 *56:15 *542:28 9.27738e-06
23 *76:57 *542:28 0
24 *78:19 *542:28 0.000342536
25 *85:20 *542:28 0.00136094
26 *104:22 *542:36 0.00199551
27 *109:19 *542:36 0.00268816
28 *112:31 *542:36 0.000674569
29 *118:43 *542:36 0.00306366
30 *126:20 *542:28 0.000143889
31 *129:47 *542:28 0.00127272
32 *540:19 *542:36 0.000132385
33 *541:21 *542:36 0.0107378
*RES
1 *897:wbs_ack_o *542:28 46.321 
2 *542:28 *542:30 77.9229 
3 *542:30 *542:36 38.1079 
4 *542:36 *542:38 72.2321 
5 *542:38 wbs_ack_o 32.0982 
*END

*D_NET *543 0.0988048
*CONN
*P wbs_adr_i[0] I
*I *897:wbs_adr_i[0] I *D soc_sys
*CAP
1 wbs_adr_i[0] 0.0053416
2 *897:wbs_adr_i[0] 0.0024468
3 *543:15 0.0309916
4 *543:13 0.0338864
5 *897:wbs_adr_i[0] *897:wbs_dat_i[0] 9.5164e-05
6 *897:wbs_adr_i[0] *897:wbs_dat_i[1] 0.00103923
7 *897:wbs_adr_i[0] *576:13 4.51268e-05
8 *897:wbs_adr_i[0] *608:25 9.40859e-05
9 *897:wbs_adr_i[0] *630:16 0.00111633
10 *543:13 wbs_dat_o[0] 0.0044329
11 *543:13 *554:13 2.99683e-05
12 *543:13 *576:11 0
13 *543:13 *587:13 0.00178022
14 *543:13 *602:13 0
15 *543:13 *643:13 0.0044324
16 *543:13 *645:11 0
17 *543:15 *604:9 0.000455616
18 *543:15 *619:10 0.00483443
19 *543:15 *641:15 0
20 *897:wb_clk_i *897:wbs_adr_i[0] 0.0014358
21 *897:wb_rst_i *897:wbs_adr_i[0] 0.00351722
22 *75:28 *543:15 0.00135909
23 *78:19 *897:wbs_adr_i[0] 0.000697371
24 *129:47 *897:wbs_adr_i[0] 0.000303744
25 *542:28 *897:wbs_adr_i[0] 0.000469638
*RES
1 wbs_adr_i[0] *543:13 33.6665 
2 *543:13 *543:15 94.7551 
3 *543:15 *897:wbs_adr_i[0] 25.2694 
*END

*D_NET *544 0.100362
*CONN
*P wbs_adr_i[10] I
*I *897:wbs_adr_i[10] I *D soc_sys
*CAP
1 wbs_adr_i[10] 0.00113767
2 *897:wbs_adr_i[10] 0.000199456
3 *544:19 0.0252561
4 *544:17 0.0318492
5 *544:11 0.00944668
6 *544:9 0.0037918
7 *544:9 *601:13 0.000121549
8 *544:9 *607:15 0.0020333
9 *544:11 *601:13 0.000568577
10 *544:11 *607:15 0.001535
11 *544:17 *558:19 0.000275605
12 *544:17 *573:17 0.0161108
13 *544:17 *583:15 0.00338753
14 *78:21 *897:wbs_adr_i[10] 0.000269125
15 *141:13 *544:17 0.00437953
*RES
1 wbs_adr_i[10] *544:9 31.2411 
2 *544:9 *544:11 64.3393 
3 *544:11 *544:17 43.3688 
4 *544:17 *544:19 79.4143 
5 *544:19 *897:wbs_adr_i[10] 7.6237 
*END

*D_NET *545 0.0973555
*CONN
*P wbs_adr_i[11] I
*I *897:wbs_adr_i[11] I *D soc_sys
*CAP
1 wbs_adr_i[11] 0.000871831
2 *897:wbs_adr_i[11] 3.163e-05
3 *545:15 0.0308985
4 *545:13 0.0420697
5 *545:9 0.0120747
6 *545:9 *643:15 0.000243098
7 *545:13 *546:21 0
8 *545:13 *580:17 0.0104994
9 *545:13 *591:19 0.000641742
10 *545:13 *605:13 0
11 *44:21 *545:15 0
12 *78:21 *897:wbs_adr_i[11] 2.48858e-05
*RES
1 wbs_adr_i[11] *545:9 20.0082 
2 *545:9 *545:13 42.9135 
3 *545:13 *545:15 93.1571 
4 *545:15 *897:wbs_adr_i[11] 6.90303 
*END

*D_NET *546 0.103829
*CONN
*P wbs_adr_i[12] I
*I *897:wbs_adr_i[12] I *D soc_sys
*CAP
1 wbs_adr_i[12] 0.00270672
2 *897:wbs_adr_i[12] 3.03678e-05
3 *546:23 0.0300452
4 *546:21 0.0386874
5 *546:17 0.0113793
6 *897:wbs_adr_i[12] *611:12 9.5164e-05
7 *546:17 *548:9 0
8 *546:17 *568:11 0.00145129
9 *546:17 *577:13 0
10 *546:17 *579:15 0.00166149
11 *546:17 *581:9 0
12 *546:21 *560:11 0.00382061
13 *546:21 *584:17 0.00678737
14 *546:21 *605:13 0.00711556
15 *546:21 *611:20 0
16 *78:21 *897:wbs_adr_i[12] 4.88647e-05
17 *545:13 *546:21 0
*RES
1 wbs_adr_i[12] *546:17 38.8893 
2 *546:17 *546:21 39.8867 
3 *546:21 *546:23 92.3049 
4 *546:23 *897:wbs_adr_i[12] 6.9751 
*END

*D_NET *547 0.10604
*CONN
*P wbs_adr_i[13] I
*I *897:wbs_adr_i[13] I *D soc_sys
*CAP
1 wbs_adr_i[13] 7.32672e-05
2 *897:wbs_adr_i[13] 4.48398e-05
3 *547:15 0.0278905
4 *547:13 0.0278456
5 *547:11 0.0104521
6 *547:7 0.0131155
7 *547:5 0.00273667
8 *897:wbs_adr_i[13] *897:wbs_dat_i[13] 9.5164e-05
9 *547:7 wbs_dat_o[12] 0
10 *547:11 *550:17 0.0222303
11 *547:11 *578:19 0
12 *547:11 *589:11 0
13 *547:11 *635:16 0.00155573
*RES
1 wbs_adr_i[13] *547:5 0.883929 
2 *547:5 *547:7 52.9464 
3 *547:7 *547:11 48.2464 
4 *547:11 *547:13 3.41 
5 *547:13 *547:15 86.6586 
6 *547:15 *897:wbs_adr_i[13] 6.9751 
*END

*D_NET *548 0.109748
*CONN
*P wbs_adr_i[14] I
*I *897:wbs_adr_i[14] I *D soc_sys
*CAP
1 wbs_adr_i[14] 0.00182883
2 *897:wbs_adr_i[14] 5.01093e-05
3 *548:15 0.0303552
4 *548:13 0.0303051
5 *548:11 0.0115649
6 *548:9 0.0133937
7 *548:11 *566:11 0
8 *548:11 *579:23 0
9 *548:11 *586:11 0.0204315
10 *548:11 *604:13 0.00176986
11 *548:11 *606:13 0
12 *548:11 *613:14 0
13 *548:11 *620:14 0
14 *78:21 *897:wbs_adr_i[14] 4.88647e-05
15 *546:17 *548:9 0
*RES
1 wbs_adr_i[14] *548:9 39.0261 
2 *548:9 *548:11 47.2146 
3 *548:11 *548:13 3.41 
4 *548:13 *548:15 89.8546 
5 *548:15 *897:wbs_adr_i[14] 6.9751 
*END

*D_NET *549 0.140354
*CONN
*P wbs_adr_i[15] I
*I *897:wbs_adr_i[15] I *D soc_sys
*CAP
1 wbs_adr_i[15] 0.00163943
2 *897:wbs_adr_i[15] 0.000185957
3 *549:19 0.0174001
4 *549:17 0.0172142
5 *549:15 0.00622018
6 *549:13 0.00622018
7 *549:11 0.00314249
8 *549:9 0.00478192
9 *897:wbs_adr_i[15] *897:wbs_dat_i[15] 0.000405902
10 *549:9 *568:21 0
11 *549:15 *552:15 0.025799
12 *549:15 *571:17 4.66673e-05
13 *549:19 *582:15 0.038347
14 *141:13 *549:15 0.0175091
15 *143:39 *549:15 0.00144211
*RES
1 wbs_adr_i[15] *549:9 31.8482 
2 *549:9 *549:11 60.0893 
3 *549:11 *549:13 3.41 
4 *549:13 *549:15 48.8001 
5 *549:15 *549:17 3.41 
6 *549:17 *549:19 80.1601 
7 *549:19 *897:wbs_adr_i[15] 7.47957 
*END

*D_NET *550 0.12314
*CONN
*P wbs_adr_i[16] I
*I *897:wbs_adr_i[16] I *D soc_sys
*CAP
1 wbs_adr_i[16] 0.000368309
2 *897:wbs_adr_i[16] 3.163e-05
3 *550:21 0.0281691
4 *550:19 0.0281375
5 *550:17 0.00960304
6 *550:15 0.00960304
7 *550:13 0.00263983
8 *550:11 0.00300814
9 *550:11 *579:15 0.000821537
10 *550:13 wbs_dat_o[15] 0
11 *550:13 wbs_dat_o[16] 0
12 *550:13 *583:9 0
13 *550:13 *583:11 0
14 *550:13 *604:15 0.000114258
15 *550:17 *589:11 0
16 *550:17 *592:11 0.0183883
17 *550:17 *600:11 0
18 *550:17 *617:14 0
19 *78:21 *897:wbs_adr_i[16] 2.48858e-05
20 *547:11 *550:17 0.0222303
*RES
1 wbs_adr_i[16] *550:11 9.79749 
2 *550:11 *550:13 51.7321 
3 *550:13 *550:15 3.41 
4 *550:15 *550:17 50.2414 
5 *550:17 *550:19 3.41 
6 *550:19 *550:21 86.7651 
7 *550:21 *897:wbs_adr_i[16] 6.90303 
*END

*D_NET *551 0.116967
*CONN
*P wbs_adr_i[17] I
*I *897:wbs_adr_i[17] I *D soc_sys
*CAP
1 wbs_adr_i[17] 0.00379374
2 *897:wbs_adr_i[17] 5.01093e-05
3 *551:21 0.0286804
4 *551:19 0.0376248
5 *551:15 0.0104987
6 *551:11 0.00529796
7 *551:11 wbs_dat_o[18] 0
8 *551:11 wbs_dat_o[19] 0.00383721
9 *551:11 *579:15 0.000308824
10 *551:11 *584:15 0.00155726
11 *551:11 *585:11 0.000806853
12 *551:15 wbs_dat_o[21] 0
13 *551:15 *557:7 0.00175965
14 *551:19 *567:11 0
15 *551:19 *612:14 0
16 *551:19 *613:14 0.0183022
17 *551:19 *617:14 0
18 *551:19 *620:14 0.00440005
19 *43:13 *551:21 0
20 *78:21 *897:wbs_adr_i[17] 4.88647e-05
*RES
1 wbs_adr_i[17] *551:11 21.9047 
2 *551:11 *551:15 44.2136 
3 *551:15 *551:19 44.1386 
4 *551:19 *551:21 88.7893 
5 *551:21 *897:wbs_adr_i[17] 6.9751 
*END

*D_NET *552 0.131599
*CONN
*P wbs_adr_i[18] I
*I *897:wbs_adr_i[18] I *D soc_sys
*CAP
1 wbs_adr_i[18] 0.00163417
2 *897:wbs_adr_i[18] 5.01093e-05
3 *552:19 0.0254007
4 *552:17 0.0253506
5 *552:15 0.00695862
6 *552:13 0.00695862
7 *552:11 0.00311279
8 *552:9 0.00474696
9 *552:9 wbs_dat_o[17] 0
10 *552:9 *579:19 0
11 *552:11 *605:15 0.000457031
12 *552:15 *561:15 0.0220586
13 *78:21 *897:wbs_adr_i[18] 4.88647e-05
14 *141:13 *552:15 0.00384358
15 *143:39 *552:15 0.00517963
16 *549:15 *552:15 0.025799
*RES
1 wbs_adr_i[18] *552:9 31.8482 
2 *552:9 *552:11 59.4821 
3 *552:11 *552:13 3.41 
4 *552:13 *552:15 56.7274 
5 *552:15 *552:17 3.41 
6 *552:17 *552:19 80.2666 
7 *552:19 *897:wbs_adr_i[18] 6.9751 
*END

*D_NET *553 0.124431
*CONN
*P wbs_adr_i[19] I
*I *897:wbs_adr_i[19] I *D soc_sys
*CAP
1 wbs_adr_i[19] 4.32496e-05
2 *897:wbs_adr_i[19] 5.01093e-05
3 *553:15 0.0275427
4 *553:13 0.0274926
5 *553:11 0.0131218
6 *553:9 0.0131218
7 *553:7 0.00212132
8 *553:5 0.00216457
9 *553:7 *585:13 0.00254188
10 *553:11 *555:11 0
11 *553:11 *578:19 0.00218234
12 *553:11 *589:11 0.033766
13 *553:11 *637:16 0.000233938
14 *553:11 *638:16 0
15 *553:15 *586:15 0
16 *78:21 *897:wbs_adr_i[19] 4.88647e-05
*RES
1 wbs_adr_i[19] *553:5 0.883929 
2 *553:5 *553:7 58.4107 
3 *553:7 *553:9 3.41 
4 *553:9 *553:11 59.3218 
5 *553:11 *553:13 3.41 
6 *553:13 *553:15 85.6998 
7 *553:15 *897:wbs_adr_i[19] 6.9751 
*END

*D_NET *554 0.0863031
*CONN
*P wbs_adr_i[1] I
*I *897:wbs_adr_i[1] I *D soc_sys
*CAP
1 wbs_adr_i[1] 0.0018823
2 *897:wbs_adr_i[1] 0
3 *554:31 0.0122628
4 *554:15 0.0287888
5 *554:13 0.0184083
6 *554:13 wbs_dat_o[0] 0.000413078
7 *554:13 wbs_dat_o[1] 0.0071595
8 *554:13 *576:11 0.000266899
9 *554:13 *587:13 0.00589427
10 *554:13 *640:9 0
11 *554:13 *643:13 0.0010231
12 *554:15 *570:7 0.00138206
13 *554:31 *897:wbs_dat_i[1] 0.000274591
14 *897:wb_clk_i *554:31 9.31015e-05
15 *78:19 *554:31 4.64849e-05
16 *129:47 *554:31 0.00717728
17 *541:45 *554:15 0
18 *541:45 *554:31 0.00120053
19 *543:13 *554:13 2.99683e-05
*RES
1 wbs_adr_i[1] *554:13 24.3521 
2 *554:13 *554:15 50.1615 
3 *554:15 *554:31 49.763 
4 *554:31 *897:wbs_adr_i[1] 3.41 
*END

*D_NET *555 0.127268
*CONN
*P wbs_adr_i[20] I
*I *897:wbs_adr_i[20] I *D soc_sys
*CAP
1 wbs_adr_i[20] 4.32496e-05
2 *897:wbs_adr_i[20] 8.33028e-05
3 *555:15 0.0272203
4 *555:13 0.027137
5 *555:11 0.0142719
6 *555:9 0.0142719
7 *555:7 0.00328091
8 *555:5 0.00332416
9 *555:7 *606:15 0.000105594
10 *555:7 *617:20 0
11 *555:11 *577:21 0.000627638
12 *555:11 *588:19 0.0365305
13 *555:11 *589:11 0
14 *555:11 *638:16 0.000273933
15 *78:21 *897:wbs_adr_i[20] 9.781e-05
16 *553:11 *555:11 0
*RES
1 wbs_adr_i[20] *555:5 0.883929 
2 *555:5 *555:7 63.875 
3 *555:7 *555:9 3.41 
4 *555:9 *555:11 61.8442 
5 *555:11 *555:13 3.41 
6 *555:13 *555:15 84.741 
7 *555:15 *897:wbs_adr_i[20] 7.11923 
*END

*D_NET *556 0.166225
*CONN
*P wbs_adr_i[21] I
*I *897:wbs_adr_i[21] I *D soc_sys
*CAP
1 wbs_adr_i[21] 0.00163957
2 *897:wbs_adr_i[21] 0.00014144
3 *556:19 0.0337598
4 *556:17 0.0336184
5 *556:15 0.00892666
6 *556:13 0.00892666
7 *556:11 0.00279556
8 *556:9 0.00443513
9 *556:9 wbs_dat_o[20] 0
10 *556:9 *588:15 0
11 *556:11 wbs_dat_o[20] 0
12 *556:11 *588:15 0
13 *556:15 *590:15 0.0374801
14 *556:15 *607:21 0.00203007
15 *556:15 *622:14 0.0298238
16 *556:15 *639:16 0.00239442
17 *556:19 *620:10 0
18 *39:37 *556:15 0.000142348
19 *78:21 *897:wbs_adr_i[21] 0.000111282
20 *143:39 *556:15 0
*RES
1 wbs_adr_i[21] *556:9 31.8482 
2 *556:9 *556:11 52.8036 
3 *556:11 *556:13 3.41 
4 *556:13 *556:15 63.5017 
5 *556:15 *556:17 3.41 
6 *556:17 *556:19 81.4385 
7 *556:19 *897:wbs_adr_i[21] 7.1913 
*END

*D_NET *557 0.159176
*CONN
*P wbs_adr_i[22] I
*I *897:wbs_adr_i[22] I *D soc_sys
*CAP
1 wbs_adr_i[22] 4.32496e-05
2 *897:wbs_adr_i[22] 5.01093e-05
3 *557:15 0.0267334
4 *557:13 0.0266833
5 *557:11 0.00781547
6 *557:9 0.00781547
7 *557:7 0.00300755
8 *557:5 0.0030508
9 *557:11 *577:21 0
10 *557:11 *582:11 0.0187597
11 *557:11 *593:15 0.0363872
12 *557:11 *618:14 0
13 *557:11 *626:14 0.0236946
14 *31:13 *557:11 0.00331929
15 *66:13 *557:11 7.69251e-06
16 *78:21 *897:wbs_adr_i[22] 4.88647e-05
17 *551:15 *557:7 0.00175965
*RES
1 wbs_adr_i[22] *557:5 0.883929 
2 *557:5 *557:7 69.9464 
3 *557:7 *557:9 3.41 
4 *557:9 *557:11 66.5285 
5 *557:11 *557:13 3.41 
6 *557:13 *557:15 83.5691 
7 *557:15 *897:wbs_adr_i[22] 6.9751 
*END

*D_NET *558 0.159274
*CONN
*P wbs_adr_i[23] I
*I *897:wbs_adr_i[23] I *D soc_sys
*CAP
1 wbs_adr_i[23] 0.000162322
2 *897:wbs_adr_i[23] 2.0566e-05
3 *558:23 0.0299248
4 *558:21 0.0299043
5 *558:19 0.0105596
6 *558:17 0.0118076
7 *558:11 0.00441508
8 *558:9 0.00332937
9 *897:wbs_adr_i[23] *623:12 4.98422e-05
10 *558:11 wbs_dat_o[21] 0.00230577
11 *558:19 *583:15 0.0214023
12 *558:19 *596:15 0.0337134
13 *558:23 *623:14 0
14 *78:21 *897:wbs_adr_i[23] 2.48858e-05
15 *113:13 *558:19 0.0113785
16 *141:13 *558:19 0
17 *544:17 *558:19 0.000275605
*RES
1 wbs_adr_i[23] *558:9 3.36607 
2 *558:9 *558:11 71.3214 
3 *558:11 *558:17 25.7671 
4 *558:17 *558:19 68.6184 
5 *558:19 *558:21 3.41 
6 *558:21 *558:23 79.3078 
7 *558:23 *897:wbs_adr_i[23] 6.90303 
*END

*D_NET *559 0.145755
*CONN
*P wbs_adr_i[24] I
*I *897:wbs_adr_i[24] I *D soc_sys
*CAP
1 wbs_adr_i[24] 0.000151425
2 *897:wbs_adr_i[24] 4.48398e-05
3 *559:23 0.0170011
4 *559:21 0.0188137
5 *559:15 0.00600568
6 *559:13 0.00414825
7 *559:11 0.0139279
8 *559:9 0.0140793
9 *897:wbs_adr_i[24] *897:wbs_dat_i[24] 9.5164e-05
10 *559:9 *592:7 0
11 *559:9 *618:18 0
12 *559:11 wbs_dat_o[22] 0.00183946
13 *559:11 wbs_dat_o[26] 0.0102746
14 *559:11 *591:17 0.000308371
15 *559:11 *595:17 0
16 *559:11 *631:14 0.0141558
17 *559:21 *622:14 0.000514228
18 *559:23 *592:15 0
19 *559:23 *624:10 0.0390005
20 *39:37 *559:21 0.00539418
21 *143:39 *559:21 0
*RES
1 wbs_adr_i[24] *559:9 6.45464 
2 *559:9 *559:11 62.3847 
3 *559:11 *559:13 3.41 
4 *559:13 *559:15 80.2679 
5 *559:15 *559:21 15.4069 
6 *559:21 *559:23 81.545 
7 *559:23 *897:wbs_adr_i[24] 6.9751 
*END

*D_NET *560 0.17208
*CONN
*P wbs_adr_i[25] I
*I *897:wbs_adr_i[25] I *D soc_sys
*CAP
1 wbs_adr_i[25] 0.00115491
2 *897:wbs_adr_i[25] 5.01093e-05
3 *560:15 0.0205574
4 *560:13 0.0205073
5 *560:11 0.0127758
6 *560:9 0.0139307
7 *560:9 *591:17 0
8 *560:11 *584:17 0.0215135
9 *560:11 *591:19 0
10 *560:11 *599:11 0.0377802
11 *560:11 *628:18 0
12 *560:15 *593:19 0.0399406
13 *78:21 *897:wbs_adr_i[25] 4.88647e-05
14 *546:21 *560:11 0.00382061
*RES
1 wbs_adr_i[25] *560:9 25.4725 
2 *560:9 *560:11 73.3748 
3 *560:11 *560:13 3.41 
4 *560:13 *560:15 92.1983 
5 *560:15 *897:wbs_adr_i[25] 6.9751 
*END

*D_NET *561 0.175719
*CONN
*P wbs_adr_i[26] I
*I *897:wbs_adr_i[26] I *D soc_sys
*CAP
1 wbs_adr_i[26] 0.00162213
2 *897:wbs_adr_i[26] 0.000452235
3 *561:19 0.0171207
4 *561:17 0.0166685
5 *561:15 0.00963269
6 *561:13 0.00963269
7 *561:11 0.00314062
8 *561:9 0.00476275
9 *561:15 *597:15 0.0415653
10 *561:19 *625:10 0.038459
11 *78:21 *897:wbs_adr_i[26] 0.000490881
12 *141:13 *561:15 0.00679026
13 *143:39 *561:15 0.00332242
14 *552:15 *561:15 0.0220586
*RES
1 wbs_adr_i[26] *561:9 31.2411 
2 *561:9 *561:11 58.875 
3 *561:11 *561:13 3.41 
4 *561:13 *561:15 74.4558 
5 *561:15 *561:17 3.41 
6 *561:17 *561:19 80.3731 
7 *561:19 *897:wbs_adr_i[26] 8.34437 
*END

*D_NET *562 0.17756
*CONN
*P wbs_adr_i[27] I
*I *897:wbs_adr_i[27] I *D soc_sys
*CAP
1 wbs_adr_i[27] 0.00148417
2 *897:wbs_adr_i[27] 0.000406953
3 *562:15 0.0205418
4 *562:13 0.0201349
5 *562:11 0.0151963
6 *562:9 0.0166805
7 *562:11 *563:15 0
8 *562:11 *584:17 0
9 *562:11 *616:14 0.017617
10 *562:11 *628:18 0.0451425
11 *562:15 *626:10 0.0398533
12 *78:21 *897:wbs_adr_i[27] 0.000502863
*RES
1 wbs_adr_i[27] *562:9 31.9546 
2 *562:9 *562:11 76.5458 
3 *562:11 *562:13 3.41 
4 *562:13 *562:15 91.133 
5 *562:15 *897:wbs_adr_i[27] 8.34437 
*END

*D_NET *563 0.136483
*CONN
*P wbs_adr_i[28] I
*I *897:wbs_adr_i[28] I *D soc_sys
*CAP
1 wbs_adr_i[28] 0.0017849
2 *897:wbs_adr_i[28] 4.48398e-05
3 *563:19 0.0287496
4 *563:17 0.0287048
5 *563:15 0.0221366
6 *563:13 0.0239215
7 *897:wbs_adr_i[28] *718:15 9.5164e-05
8 *563:13 wbs_dat_o[25] 0
9 *563:13 *580:17 0.000205661
10 *563:13 *595:15 0
11 *563:15 *566:11 0
12 *563:15 *616:14 0
13 *563:15 *621:14 0.030743
14 *563:15 *628:18 0
15 *563:19 *628:14 0
16 *563:19 *709:17 9.64915e-05
17 *562:11 *563:15 0
*RES
1 wbs_adr_i[28] *563:13 37.8654 
2 *563:13 *563:15 80.9418 
3 *563:15 *563:17 3.41 
4 *563:17 *563:19 90.1742 
5 *563:19 *897:wbs_adr_i[28] 6.9751 
*END

*D_NET *564 0.142185
*CONN
*P wbs_adr_i[29] I
*I *897:wbs_adr_i[29] I *D soc_sys
*CAP
1 wbs_adr_i[29] 4.32496e-05
2 *897:wbs_adr_i[29] 1.72233e-05
3 *564:15 0.028303
4 *564:13 0.0282858
5 *564:11 0.0220432
6 *564:9 0.0220432
7 *564:7 0.00264485
8 *564:5 0.0026881
9 *897:wbs_adr_i[29] *897:wbs_dat_i[29] 4.98422e-05
10 *897:wbs_adr_i[29] *718:15 4.98422e-05
11 *564:7 wbs_dat_o[28] 0
12 *564:11 *592:11 0.0360163
13 *564:11 *600:11 0
14 *564:11 *617:14 0
15 *564:11 *632:22 0
16 *564:15 *597:19 0
*RES
1 wbs_adr_i[29] *564:5 0.883929 
2 *564:5 *564:7 50.5179 
3 *564:7 *564:9 3.41 
4 *564:9 *564:11 83.248 
5 *564:11 *564:13 3.41 
6 *564:13 *564:15 86.9782 
7 *564:15 *897:wbs_adr_i[29] 6.90303 
*END

*D_NET *565 0.089297
*CONN
*P wbs_adr_i[2] I
*I *897:wbs_adr_i[2] I *D soc_sys
*CAP
1 wbs_adr_i[2] 0.00173024
2 *897:wbs_adr_i[2] 0.000208739
3 *565:15 0.0271227
4 *565:13 0.0286442
5 *565:13 wbs_dat_o[1] 0.00821054
6 *565:13 *598:15 0.000213051
7 *565:13 *641:13 0.00923404
8 *565:13 *643:13 0.000384127
9 *565:15 *572:9 0.000318924
10 *565:15 *641:15 0.00515471
11 *897:wb_clk_i *897:wbs_adr_i[2] 0.000766948
12 *78:19 *897:wbs_adr_i[2] 0.000399243
13 *105:27 *565:15 0.00690956
*RES
1 wbs_adr_i[2] *565:13 24.8655 
2 *565:13 *565:15 95.7139 
3 *565:15 *897:wbs_adr_i[2] 8.0561 
*END

*D_NET *566 0.133272
*CONN
*P wbs_adr_i[30] I
*I *897:wbs_adr_i[30] I *D soc_sys
*CAP
1 wbs_adr_i[30] 0.00210038
2 *897:wbs_adr_i[30] 2.50983e-05
3 *566:15 0.0283986
4 *566:13 0.0283735
5 *566:11 0.0241563
6 *566:9 0.0262566
7 *897:wbs_adr_i[30] *676:23 9.5164e-05
8 *897:wbs_adr_i[30] *718:15 9.5164e-05
9 *566:9 *599:9 0
10 *566:11 *567:11 0
11 *566:11 *586:11 0
12 *566:11 *620:14 0.023622
13 *566:11 *621:14 0
14 *566:15 *897:wbs_dat_i[30] 0.000143889
15 *566:15 *599:15 0
16 *566:15 *676:25 4.95909e-06
17 *548:11 *566:11 0
18 *563:15 *566:11 0
*RES
1 wbs_adr_i[30] *566:9 43.4904 
2 *566:9 *566:11 85.3379 
3 *566:11 *566:13 3.41 
4 *566:13 *566:15 89.1089 
5 *566:15 *897:wbs_adr_i[30] 6.9751 
*END

*D_NET *567 0.156115
*CONN
*P wbs_adr_i[31] I
*I *897:wbs_adr_i[31] I *D soc_sys
*CAP
1 wbs_adr_i[31] 0.00244071
2 *897:wbs_adr_i[31] 1.72233e-05
3 *567:15 0.0258237
4 *567:13 0.0258065
5 *567:11 0.0199468
6 *567:9 0.0223875
7 *897:wbs_adr_i[31] *676:23 4.98422e-05
8 *897:wbs_adr_i[31] *718:15 4.98422e-05
9 *567:11 *617:14 0.000625626
10 *567:11 *620:14 0
11 *567:11 *632:22 0.0540628
12 *567:15 *632:18 0.00490462
13 *551:19 *567:11 0
14 *566:11 *567:11 0
*RES
1 wbs_adr_i[31] *567:9 49.3475 
2 *567:9 *567:11 88.0764 
3 *567:11 *567:13 3.41 
4 *567:13 *567:15 88.0435 
5 *567:15 *897:wbs_adr_i[31] 6.90303 
*END

*D_NET *568 0.11771
*CONN
*P wbs_adr_i[3] I
*I *897:wbs_adr_i[3] I *D soc_sys
*CAP
1 wbs_adr_i[3] 0.000105541
2 *897:wbs_adr_i[3] 0.00290142
3 *568:23 0.0219881
4 *568:21 0.0191443
5 *568:11 0.0103611
6 *568:9 0.0104091
7 *897:wbs_adr_i[3] *897:wbs_adr_i[6] 0.000297753
8 *897:wbs_adr_i[3] *897:wbs_dat_i[4] 0.00092834
9 *897:wbs_adr_i[3] *897:wbs_dat_i[5] 0.00200147
10 *897:wbs_adr_i[3] *634:16 0.00140141
11 *568:11 wbs_dat_o[14] 0.000335952
12 *568:11 wbs_dat_o[3] 0
13 *568:11 *578:11 0.000284147
14 *568:11 *579:15 0.000389128
15 *568:11 *601:11 0.00540944
16 *568:11 *642:13 0.000106828
17 *568:21 wbs_dat_o[14] 5.40377e-05
18 *568:21 *579:15 2.14879e-05
19 *568:21 *582:7 2.83284e-06
20 *568:23 *571:19 0.0142041
21 *568:23 *582:7 0.000891208
22 *568:23 *635:10 0.0152233
23 *897:wb_clk_i *897:wbs_adr_i[3] 0.000299805
24 *78:21 *897:wbs_adr_i[3] 0.00038058
25 *540:33 *897:wbs_adr_i[3] 0.00911752
26 *546:17 *568:11 0.00145129
27 *549:9 *568:21 0
*RES
1 wbs_adr_i[3] *568:9 5.96429 
2 *568:9 *568:11 197.679 
3 *568:11 *568:21 11.9834 
4 *568:21 *568:23 95.8205 
5 *568:23 *897:wbs_adr_i[3] 22.4162 
*END

*D_NET *569 0.0973155
*CONN
*P wbs_adr_i[4] I
*I *897:wbs_adr_i[4] I *D soc_sys
*CAP
1 wbs_adr_i[4] 0.00163117
2 *897:wbs_adr_i[4] 2.50983e-05
3 *569:19 0.027519
4 *569:17 0.0298247
5 *569:11 0.00471351
6 *569:9 0.00401388
7 *569:9 *633:18 0
8 *569:9 *643:13 0
9 *569:19 *897:wbs_dat_i[4] 5.87752e-05
10 *569:19 *602:15 0
11 *33:21 *569:17 0.0146719
12 *38:17 *569:17 0.0146671
13 *70:16 *569:19 0
14 *78:21 *897:wbs_adr_i[4] 9.5164e-05
15 *540:33 *897:wbs_adr_i[4] 9.5164e-05
*RES
1 wbs_adr_i[4] *569:9 31.8482 
2 *569:9 *569:11 47.9464 
3 *569:11 *569:17 29.8202 
4 *569:17 *569:19 82.3973 
5 *569:19 *897:wbs_adr_i[4] 6.9751 
*END

*D_NET *570 0.0908456
*CONN
*P wbs_adr_i[5] I
*I *897:wbs_adr_i[5] I *D soc_sys
*CAP
1 wbs_adr_i[5] 7.32672e-05
2 *897:wbs_adr_i[5] 2.50983e-05
3 *570:15 0.0234288
4 *570:13 0.0290096
5 *570:7 0.00910736
6 *570:5 0.00357477
7 *570:13 *574:17 0.00902593
8 *570:15 *897:wbs_dat_i[5] 0.000143889
9 *31:13 *570:13 0.00124615
10 *66:13 *570:13 0.00308133
11 *77:17 *570:15 0
12 *78:21 *897:wbs_adr_i[5] 9.5164e-05
13 *115:14 *570:15 0.010557
14 *540:33 *897:wbs_adr_i[5] 9.5164e-05
15 *554:15 *570:7 0.00138206
*RES
1 wbs_adr_i[5] *570:5 0.883929 
2 *570:5 *570:7 70.5536 
3 *570:7 *570:13 32.3426 
4 *570:13 *570:15 83.6757 
5 *570:15 *897:wbs_adr_i[5] 6.9751 
*END

*D_NET *571 0.0971378
*CONN
*P wbs_adr_i[6] I
*I *897:wbs_adr_i[6] I *D soc_sys
*CAP
1 wbs_adr_i[6] 0.00164177
2 *897:wbs_adr_i[6] 0.000739143
3 *571:19 0.0175336
4 *571:17 0.0211059
5 *571:11 0.00726501
6 *571:9 0.00459532
7 *571:9 *619:10 0.000543577
8 *571:11 *619:10 0.00178654
9 *897:wbs_adr_i[3] *897:wbs_adr_i[6] 0.000297753
10 *78:21 *897:wbs_adr_i[6] 0.000285868
11 *116:23 *571:19 0.00767119
12 *141:13 *571:17 0.00298154
13 *143:39 *571:17 0.0160596
14 *540:33 *897:wbs_adr_i[6] 0.000380104
15 *549:15 *571:17 4.66673e-05
16 *568:23 *571:19 0.0142041
*RES
1 wbs_adr_i[6] *571:9 31.8482 
2 *571:9 *571:11 58.2679 
3 *571:11 *571:17 32.0543 
4 *571:17 *571:19 80.2666 
5 *571:19 *897:wbs_adr_i[6] 9.66037 
*END

*D_NET *572 0.0900957
*CONN
*P wbs_adr_i[7] I
*I *897:wbs_adr_i[7] I *D soc_sys
*CAP
1 wbs_adr_i[7] 0.00146211
2 *897:wbs_adr_i[7] 5.01093e-05
3 *572:15 0.027118
4 *572:13 0.0362508
5 *572:9 0.010645
6 *572:9 wbs_dat_o[6] 0
7 *572:13 *579:23 2.03842e-05
8 *572:13 *604:13 0
9 *572:13 *605:13 0
10 *572:13 *611:20 0.00894897
11 *572:13 *616:14 0.000184099
12 *572:15 *605:15 0.00504855
13 *78:21 *897:wbs_adr_i[7] 4.88647e-05
14 *565:15 *572:9 0.000318924
*RES
1 wbs_adr_i[7] *572:9 31.7404 
2 *572:9 *572:13 33.761 
3 *572:13 *572:15 91.133 
4 *572:15 *897:wbs_adr_i[7] 6.9751 
*END

*D_NET *573 0.104188
*CONN
*P wbs_adr_i[8] I
*I *897:wbs_adr_i[8] I *D soc_sys
*CAP
1 wbs_adr_i[8] 0.00162633
2 *897:wbs_adr_i[8] 0.000385848
3 *573:19 0.024167
4 *573:17 0.0284727
5 *573:11 0.00801177
6 *573:9 0.00494646
7 *573:9 *598:17 0.000232309
8 *573:11 *598:17 0.000592285
9 *573:17 *583:15 0.00510641
10 *573:17 *642:21 0.00204003
11 *573:19 *637:10 0.00447416
12 *78:21 *897:wbs_adr_i[8] 0.00039299
13 *113:13 *573:17 0.0076292
14 *141:13 *573:17 0
15 *544:17 *573:17 0.0161108
*RES
1 wbs_adr_i[8] *573:9 31.8482 
2 *573:9 *573:11 64.9464 
3 *573:11 *573:17 38.18 
4 *573:17 *573:19 79.3078 
5 *573:19 *897:wbs_adr_i[8] 8.0561 
*END

*D_NET *574 0.0948437
*CONN
*P wbs_adr_i[9] I
*I *897:wbs_adr_i[9] I *D soc_sys
*CAP
1 wbs_adr_i[9] 0.000689541
2 *897:wbs_adr_i[9] 0.000307373
3 *574:19 0.0270516
4 *574:17 0.0354157
5 *574:11 0.0115884
6 *574:9 0.0036064
7 *574:9 *607:13 0
8 *574:17 *577:21 0
9 *574:17 *582:11 0.0058996
10 *574:17 *638:16 0
11 *574:19 *653:18 0
12 *31:13 *574:17 0.00090316
13 *66:13 *574:17 0
14 *78:21 *897:wbs_adr_i[9] 0.000356027
15 *570:13 *574:17 0.00902593
*RES
1 wbs_adr_i[9] *574:9 12.9554 
2 *574:9 *574:11 58.5357 
3 *574:11 *574:17 40.6302 
4 *574:17 *574:19 83.6757 
5 *574:19 *897:wbs_adr_i[9] 7.91197 
*END

*D_NET *575 0.07637
*CONN
*P wbs_cyc_i I
*I *897:wbs_cyc_i I *D soc_sys
*CAP
1 wbs_cyc_i 0.00152406
2 *897:wbs_cyc_i 0.010364
3 *575:21 0.02618
4 *575:17 0.016566
5 *575:11 0.00419917
6 *575:9 0.00497327
7 *897:wbs_cyc_i *644:19 0.00352701
8 *897:io_in[1] *575:11 0.000227797
9 *897:wb_clk_i *897:wbs_cyc_i 9.5164e-05
10 *43:33 *575:17 0.00373607
11 *44:25 *575:17 0.00373938
12 *76:35 *897:wbs_cyc_i 0
13 *76:51 *897:wbs_cyc_i 0.000459718
14 *77:15 *897:wbs_cyc_i 0.000729459
15 *78:19 *897:wbs_cyc_i 4.88647e-05
*RES
1 wbs_cyc_i *575:9 31.2411 
2 *575:9 *575:11 68.5893 
3 *575:11 *575:17 12.8125 
4 *575:17 *575:21 48.7609 
5 *575:21 *897:wbs_cyc_i 38.2432 
*END

*D_NET *576 0.0801477
*CONN
*P wbs_dat_i[0] I
*I *897:wbs_dat_i[0] I *D soc_sys
*CAP
1 wbs_dat_i[0] 0.00232576
2 *897:wbs_dat_i[0] 2.50983e-05
3 *576:13 0.0298085
4 *576:11 0.0321092
5 *576:11 wbs_dat_o[0] 0
6 *576:11 wbs_dat_o[1] 0.000180623
7 *576:11 wbs_dat_o[2] 0.000100938
8 *576:11 *598:15 0.00212512
9 *576:11 *641:13 0.00173361
10 *576:11 *645:11 0.00332091
11 *576:13 *642:15 0.00247548
12 *897:wbs_adr_i[0] *897:wbs_dat_i[0] 9.5164e-05
13 *897:wbs_adr_i[0] *576:13 4.51268e-05
14 *56:15 *576:13 0.00543696
15 *78:19 *897:wbs_dat_i[0] 9.5164e-05
16 *126:20 *576:13 0
17 *129:47 *576:13 3.10989e-06
18 *543:13 *576:11 0
19 *554:13 *576:11 0.000266899
*RES
1 wbs_dat_i[0] *576:11 19.2022 
2 *576:11 *576:13 96.1401 
3 *576:13 *897:wbs_dat_i[0] 6.9751 
*END

*D_NET *577 0.0939347
*CONN
*P wbs_dat_i[10] I
*I *897:wbs_dat_i[10] I *D soc_sys
*CAP
1 wbs_dat_i[10] 0.00160772
2 *897:wbs_dat_i[10] 5.01093e-05
3 *577:23 0.0248499
4 *577:21 0.0337246
5 *577:15 0.0119796
6 *577:13 0.00466258
7 *577:13 wbs_dat_o[10] 0
8 *577:13 wbs_dat_o[6] 0.000631555
9 *577:13 *578:11 0
10 *577:13 *643:13 0.00119721
11 *577:21 *582:11 0
12 *577:21 *588:19 0.00247822
13 *577:21 *618:14 0.00027891
14 *577:21 *638:16 0.00716122
15 *577:23 *609:10 0.00463653
16 *78:21 *897:wbs_dat_i[10] 4.88647e-05
17 *546:17 *577:13 0
18 *555:11 *577:21 0.000627638
19 *557:11 *577:21 0
20 *574:17 *577:21 0
*RES
1 wbs_dat_i[10] *577:13 17.7254 
2 *577:13 *577:15 60.8393 
3 *577:15 *577:21 39.6934 
4 *577:21 *577:23 84.4214 
5 *577:23 *897:wbs_dat_i[10] 6.9751 
*END

*D_NET *578 0.104568
*CONN
*P wbs_dat_i[11] I
*I *897:wbs_dat_i[11] I *D soc_sys
*CAP
1 wbs_dat_i[11] 0.00061848
2 *897:wbs_dat_i[11] 5.01093e-05
3 *578:21 0.0280163
4 *578:19 0.0366026
5 *578:13 0.011478
6 *578:11 0.00346009
7 *578:13 wbs_dat_o[11] 0
8 *578:13 *602:15 0.00070109
9 *578:19 *589:11 0.00836913
10 *578:19 *635:16 0
11 *578:19 *637:16 0.0127568
12 *578:21 *611:14 0
13 *44:21 *578:21 0
14 *78:21 *897:wbs_dat_i[11] 4.88647e-05
15 *547:11 *578:19 0
16 *553:11 *578:19 0.00218234
17 *568:11 *578:11 0.000284147
18 *577:13 *578:11 0
*RES
1 wbs_dat_i[11] *578:11 9.79749 
2 *578:11 *578:13 56.5893 
3 *578:13 *578:19 45.9632 
4 *578:19 *578:21 85.9129 
5 *578:21 *897:wbs_dat_i[11] 6.9751 
*END

*D_NET *579 0.108893
*CONN
*P wbs_dat_i[12] I
*I *897:wbs_dat_i[12] I *D soc_sys
*CAP
1 wbs_dat_i[12] 0.0044639
2 *897:wbs_dat_i[12] 3.03678e-05
3 *579:25 0.0299905
4 *579:23 0.036769
5 *579:19 0.00772956
6 *579:15 0.00538454
7 *897:wbs_dat_i[12] *611:12 9.5164e-05
8 *579:15 wbs_dat_o[14] 0.000849517
9 *579:15 wbs_dat_o[15] 0
10 *579:15 *584:15 0.00062273
11 *579:19 wbs_dat_o[17] 0.00216483
12 *579:23 *586:11 0
13 *579:23 *616:14 0.0175107
14 *579:23 *621:14 0
15 *579:25 *580:17 1.01369e-05
16 *579:25 *580:19 0
17 *78:21 *897:wbs_dat_i[12] 4.88647e-05
18 *546:17 *579:15 0.00166149
19 *548:11 *579:23 0
20 *550:11 *579:15 0.000821537
21 *551:11 *579:15 0.000308824
22 *552:9 *579:19 0
23 *568:11 *579:15 0.000389128
24 *568:21 *579:15 2.14879e-05
25 *572:13 *579:23 2.03842e-05
*RES
1 wbs_dat_i[12] *579:15 23.5466 
2 *579:15 *579:19 30.8564 
3 *579:19 *579:23 31.4549 
4 *579:23 *579:25 90.9199 
5 *579:25 *897:wbs_dat_i[12] 6.9751 
*END

*D_NET *580 0.109399
*CONN
*P wbs_dat_i[13] I
*I *897:wbs_dat_i[13] I *D soc_sys
*CAP
1 wbs_dat_i[13] 0.000794628
2 *897:wbs_dat_i[13] 0.000904926
3 *580:19 0.030789
4 *580:17 0.0405169
5 *580:9 0.0114274
6 *897:wbs_dat_i[13] *611:12 0.00041544
7 *580:9 *612:22 0
8 *580:17 *591:19 0.00544417
9 *580:17 *614:14 0
10 *580:17 *624:14 0.0057188
11 *897:wbs_adr_i[13] *897:wbs_dat_i[13] 9.5164e-05
12 *78:21 *897:wbs_dat_i[13] 0.00257712
13 *545:13 *580:17 0.0104994
14 *563:13 *580:17 0.000205661
15 *579:25 *580:17 1.01369e-05
16 *579:25 *580:19 0
*RES
1 wbs_dat_i[13] *580:9 18.7939 
2 *580:9 *580:17 47.2814 
3 *580:17 *580:19 90.7883 
4 *580:19 *897:wbs_dat_i[13] 10.9388 
*END

*D_NET *581 0.13541
*CONN
*P wbs_dat_i[14] I
*I *897:wbs_dat_i[14] I *D soc_sys
*CAP
1 wbs_dat_i[14] 0.00163943
2 *897:wbs_dat_i[14] 3.163e-05
3 *581:19 0.0273235
4 *581:17 0.0272919
5 *581:15 0.00500727
6 *581:13 0.00726393
7 *581:9 0.00389609
8 *581:15 *585:17 0.0224088
9 *581:15 *609:16 0.00453147
10 *31:13 *581:15 0.0055222
11 *66:13 *581:15 0.030469
12 *78:21 *897:wbs_dat_i[14] 2.48858e-05
13 *546:17 *581:9 0
*RES
1 wbs_dat_i[14] *581:9 31.8482 
2 *581:9 *581:13 47.7136 
3 *581:13 *581:15 47.7191 
4 *581:15 *581:17 3.41 
5 *581:17 *581:19 82.9299 
6 *581:19 *897:wbs_dat_i[14] 6.90303 
*END

*D_NET *582 0.136173
*CONN
*P wbs_dat_i[15] I
*I *897:wbs_dat_i[15] I *D soc_sys
*CAP
1 wbs_dat_i[15] 4.32496e-05
2 *897:wbs_dat_i[15] 0.000556132
3 *582:15 0.0186474
4 *582:13 0.0180912
5 *582:11 0.0075228
6 *582:9 0.0075228
7 *582:7 0.0036213
8 *582:5 0.00366455
9 *582:15 *613:10 0
10 *897:wbs_adr_i[15] *897:wbs_dat_i[15] 0.000405902
11 *31:13 *582:11 0.0023565
12 *66:13 *582:11 0.00826102
13 *78:21 *897:wbs_dat_i[15] 0.00158009
14 *549:19 *582:15 0.038347
15 *557:11 *582:11 0.0187597
16 *568:21 *582:7 2.83284e-06
17 *568:23 *582:7 0.000891208
18 *574:17 *582:11 0.0058996
19 *577:21 *582:11 0
*RES
1 wbs_dat_i[15] *582:5 0.883929 
2 *582:5 *582:7 71.1607 
3 *582:7 *582:9 3.41 
4 *582:9 *582:11 47.8632 
5 *582:11 *582:13 3.41 
6 *582:13 *582:15 83.5691 
7 *582:15 *897:wbs_dat_i[15] 9.3533 
*END

*D_NET *583 0.136299
*CONN
*P wbs_dat_i[16] I
*I *897:wbs_dat_i[16] I *D soc_sys
*CAP
1 wbs_dat_i[16] 0.00162568
2 *897:wbs_dat_i[16] 5.01093e-05
3 *583:19 0.0250092
4 *583:17 0.0249591
5 *583:15 0.00661386
6 *583:13 0.00661386
7 *583:11 0.00344152
8 *583:9 0.0050672
9 *583:19 *615:10 0
10 *78:21 *897:wbs_dat_i[16] 4.88647e-05
11 *113:13 *583:15 0.0329731
12 *544:17 *583:15 0.00338753
13 *550:13 *583:9 0
14 *550:13 *583:11 0
15 *558:19 *583:15 0.0214023
16 *573:17 *583:15 0.00510641
*RES
1 wbs_dat_i[16] *583:9 31.8482 
2 *583:9 *583:11 65.5536 
3 *583:11 *583:13 3.41 
4 *583:13 *583:15 52.6917 
5 *583:15 *583:17 3.41 
6 *583:17 *583:19 79.2013 
7 *583:19 *897:wbs_dat_i[16] 6.9751 
*END

*D_NET *584 0.140899
*CONN
*P wbs_dat_i[17] I
*I *897:wbs_dat_i[17] I *D soc_sys
*CAP
1 wbs_dat_i[17] 0.00162372
2 *897:wbs_dat_i[17] 5.01093e-05
3 *584:21 0.0179167
4 *584:19 0.0178666
5 *584:17 0.0117784
6 *584:15 0.0134021
7 *584:17 *611:20 0
8 *584:17 *616:14 0
9 *584:17 *628:18 0
10 *584:21 *616:10 0.0432917
11 *43:13 *584:21 0.00443992
12 *78:21 *897:wbs_dat_i[17] 4.88647e-05
13 *546:21 *584:17 0.00678737
14 *551:11 *584:15 0.00155726
15 *560:11 *584:17 0.0215135
16 *562:11 *584:17 0
17 *579:15 *584:15 0.00062273
*RES
1 wbs_dat_i[17] *584:15 35.3248 
2 *584:15 *584:17 52.5476 
3 *584:17 *584:19 3.41 
4 *584:19 *584:21 92.0918 
5 *584:21 *897:wbs_dat_i[17] 6.9751 
*END

*D_NET *585 0.145895
*CONN
*P wbs_dat_i[18] I
*I *897:wbs_dat_i[18] I *D soc_sys
*CAP
1 wbs_dat_i[18] 0.000393653
2 *897:wbs_dat_i[18] 5.01093e-05
3 *585:21 0.0268042
4 *585:19 0.0267541
5 *585:17 0.00614333
6 *585:15 0.00614333
7 *585:13 0.00293387
8 *585:11 0.00332752
9 *585:11 wbs_dat_o[18] 0
10 *585:13 wbs_dat_o[18] 0
11 *585:17 *594:15 0.0225378
12 *585:17 *609:16 0.0095995
13 *31:13 *585:17 0.00650441
14 *37:17 *585:17 0.00137363
15 *66:13 *585:17 0.0075236
16 *78:21 *897:wbs_dat_i[18] 4.88647e-05
17 *551:11 *585:11 0.000806853
18 *553:7 *585:13 0.00254188
19 *581:15 *585:17 0.0224088
*RES
1 wbs_dat_i[18] *585:11 9.79749 
2 *585:11 *585:13 74.1964 
3 *585:13 *585:15 3.41 
4 *585:15 *585:17 56.0068 
5 *585:17 *585:19 3.41 
6 *585:19 *585:21 82.8234 
7 *585:21 *897:wbs_dat_i[18] 6.9751 
*END

*D_NET *586 0.145411
*CONN
*P wbs_dat_i[19] I
*I *897:wbs_dat_i[19] I *D soc_sys
*CAP
1 wbs_dat_i[19] 0.00184401
2 *897:wbs_dat_i[19] 0.000174599
3 *586:15 0.0345763
4 *586:13 0.0344017
5 *586:11 0.0102418
6 *586:9 0.0120858
7 *586:11 *621:14 0.0314947
8 *78:21 *897:wbs_dat_i[19] 0.000160245
9 *548:11 *586:11 0.0204315
10 *553:15 *586:15 0
11 *566:11 *586:11 0
12 *579:23 *586:11 0
*RES
1 wbs_dat_i[19] *586:9 38.6332 
2 *586:9 *586:11 59.1056 
3 *586:11 *586:13 3.41 
4 *586:13 *586:15 89.9611 
5 *586:15 *897:wbs_dat_i[19] 7.33543 
*END

*D_NET *587 0.0825694
*CONN
*P wbs_dat_i[1] I
*I *897:wbs_dat_i[1] I *D soc_sys
*CAP
1 wbs_dat_i[1] 0.00125886
2 *897:wbs_dat_i[1] 0.00137281
3 *587:15 0.0325091
4 *587:13 0.0323952
5 *587:13 wbs_dat_o[0] 0.0026881
6 *587:15 *633:18 0.0018787
7 *587:15 *640:19 0
8 *897:wb_clk_i *897:wbs_dat_i[1] 0.000964475
9 *897:wbs_adr_i[0] *897:wbs_dat_i[1] 0.00103923
10 *76:57 *897:wbs_dat_i[1] 0
11 *78:19 *897:wbs_dat_i[1] 0.000513851
12 *111:23 *587:15 0
13 *543:13 *587:13 0.00178022
14 *554:13 *587:13 0.00589427
15 *554:31 *897:wbs_dat_i[1] 0.000274591
*RES
1 wbs_dat_i[1] *587:13 20.1001 
2 *587:13 *587:15 94.7551 
3 *587:15 *897:wbs_dat_i[1] 19.0685 
*END

*D_NET *588 0.155286
*CONN
*P wbs_dat_i[20] I
*I *897:wbs_dat_i[20] I *D soc_sys
*CAP
1 wbs_dat_i[20] 0.00112891
2 *897:wbs_dat_i[20] 5.01093e-05
3 *588:23 0.0301849
4 *588:21 0.0301348
5 *588:19 0.00748388
6 *588:17 0.00748388
7 *588:15 0.00226777
8 *588:13 0.00339668
9 *588:13 wbs_dat_o[19] 0
10 *588:13 *615:14 0
11 *588:15 *589:7 0.00231747
12 *588:19 *618:14 0.0306376
13 *588:19 *627:16 0.00114218
14 *78:21 *897:wbs_dat_i[20] 4.88647e-05
15 *555:11 *588:19 0.0365305
16 *556:9 *588:15 0
17 *556:11 *588:15 0
18 *577:21 *588:19 0.00247822
*RES
1 wbs_dat_i[20] *588:13 14.7707 
2 *588:13 *588:15 59.625 
3 *588:15 *588:17 3.41 
4 *588:17 *588:19 59.8984 
5 *588:19 *588:21 3.41 
6 *588:21 *588:23 84.6345 
7 *588:23 *897:wbs_dat_i[20] 6.9751 
*END

*D_NET *589 0.146949
*CONN
*P wbs_dat_i[21] I
*I *897:wbs_dat_i[21] I *D soc_sys
*CAP
1 wbs_dat_i[21] 4.32496e-05
2 *897:wbs_dat_i[21] 5.01093e-05
3 *589:15 0.027531
4 *589:13 0.0274809
5 *589:11 0.00960302
6 *589:9 0.00960302
7 *589:7 0.00217842
8 *589:5 0.00222167
9 *589:11 *600:11 0.0237362
10 *78:21 *897:wbs_dat_i[21] 4.88647e-05
11 *547:11 *589:11 0
12 *550:17 *589:11 0
13 *553:11 *589:11 0.033766
14 *555:11 *589:11 0
15 *578:19 *589:11 0.00836913
16 *588:15 *589:7 0.00231747
*RES
1 wbs_dat_i[21] *589:5 0.883929 
2 *589:5 *589:7 57.8036 
3 *589:7 *589:9 3.41 
4 *589:9 *589:11 64.943 
5 *589:11 *589:13 3.41 
6 *589:13 *589:15 85.8063 
7 *589:15 *897:wbs_dat_i[21] 6.9751 
*END

*D_NET *590 0.158738
*CONN
*P wbs_dat_i[22] I
*I *897:wbs_dat_i[22] I *D soc_sys
*CAP
1 wbs_dat_i[22] 0.00160172
2 *897:wbs_dat_i[22] 5.01093e-05
3 *590:19 0.0258671
4 *590:17 0.025817
5 *590:15 0.00810249
6 *590:13 0.00810249
7 *590:11 0.00278302
8 *590:9 0.00438474
9 *590:15 *622:14 0.00241778
10 *39:37 *590:15 0.0420822
11 *78:21 *897:wbs_dat_i[22] 4.88647e-05
12 *556:15 *590:15 0.0374801
*RES
1 wbs_dat_i[22] *590:9 31.2411 
2 *590:9 *590:11 52.1964 
3 *590:11 *590:13 3.41 
4 *590:13 *590:15 67.1771 
5 *590:15 *590:17 3.41 
6 *590:17 *590:19 81.545 
7 *590:19 *897:wbs_dat_i[22] 6.9751 
*END

*D_NET *591 0.136672
*CONN
*P wbs_dat_i[23] I
*I *897:wbs_dat_i[23] I *D soc_sys
*CAP
1 wbs_dat_i[23] 0.00224215
2 *897:wbs_dat_i[23] 3.03678e-05
3 *591:23 0.030063
4 *591:21 0.0300326
5 *591:19 0.015048
6 *591:17 0.0172902
7 *897:wbs_dat_i[23] *623:12 9.5164e-05
8 *591:17 wbs_dat_o[19] 0
9 *591:17 wbs_dat_o[22] 0
10 *591:17 wbs_dat_o[24] 0
11 *591:17 *615:14 0
12 *591:17 *623:18 0
13 *591:19 *599:11 0
14 *591:19 *624:14 4.4457e-05
15 *591:19 *625:14 0.0353831
16 *78:21 *897:wbs_dat_i[23] 4.88647e-05
17 *545:13 *591:19 0.000641742
18 *559:11 *591:17 0.000308371
19 *560:9 *591:17 0
20 *560:11 *591:19 0
21 *580:17 *591:19 0.00544417
*RES
1 wbs_dat_i[23] *591:17 31.1297 
2 *591:17 *591:19 65.1592 
3 *591:19 *591:21 3.41 
4 *591:21 *591:23 93.2637 
5 *591:23 *897:wbs_dat_i[23] 6.9751 
*END

*D_NET *592 0.145756
*CONN
*P wbs_dat_i[24] I
*I *897:wbs_dat_i[24] I *D soc_sys
*CAP
1 wbs_dat_i[24] 4.32496e-05
2 *897:wbs_dat_i[24] 0.00047722
3 *592:15 0.0283912
4 *592:13 0.027914
5 *592:11 0.0131793
6 *592:9 0.0131793
7 *592:7 0.00265824
8 *592:5 0.00270149
9 *897:wbs_dat_i[24] *624:8 0.000944536
10 *592:11 *600:11 0
11 *592:11 *617:14 0
12 *592:15 *624:10 0
13 *897:wbs_adr_i[24] *897:wbs_dat_i[24] 9.5164e-05
14 *78:21 *897:wbs_dat_i[24] 0.00176809
15 *550:17 *592:11 0.0183883
16 *559:9 *592:7 0
17 *559:23 *592:15 0
18 *564:11 *592:11 0.0360163
*RES
1 wbs_dat_i[24] *592:5 0.883929 
2 *592:5 *592:7 51.125 
3 *592:7 *592:9 3.41 
4 *592:9 *592:11 69.267 
5 *592:11 *592:13 3.41 
6 *592:13 *592:15 86.9782 
7 *592:15 *897:wbs_dat_i[24] 9.64157 
*END

*D_NET *593 0.163089
*CONN
*P wbs_dat_i[25] I
*I *897:wbs_dat_i[25] I *D soc_sys
*CAP
1 wbs_dat_i[25] 0.000667664
2 *897:wbs_dat_i[25] 0.000428665
3 *593:19 0.0180326
4 *593:17 0.0176039
5 *593:15 0.0170207
6 *593:13 0.0170207
7 *593:11 0.00306214
8 *593:9 0.0037298
9 *593:15 *618:14 0
10 *593:15 *626:14 0.00567503
11 *593:15 *627:16 0
12 *31:13 *593:15 0.00302258
13 *78:21 *897:wbs_dat_i[25] 0.000497115
14 *557:11 *593:15 0.0363872
15 *560:15 *593:19 0.0399406
*RES
1 wbs_dat_i[25] *593:9 12.9554 
2 *593:9 *593:11 58.5357 
3 *593:11 *593:13 3.41 
4 *593:13 *593:15 72.7262 
5 *593:15 *593:17 3.41 
6 *593:17 *593:19 83.6757 
7 *593:19 *897:wbs_dat_i[25] 8.34437 
*END

*D_NET *594 0.165653
*CONN
*P wbs_dat_i[26] I
*I *897:wbs_dat_i[26] I *D soc_sys
*CAP
1 wbs_dat_i[26] 0.00162284
2 *897:wbs_dat_i[26] 0.000299037
3 *594:19 0.0265701
4 *594:17 0.0262711
5 *594:15 0.00925536
6 *594:13 0.0116546
7 *594:9 0.00402209
8 *594:15 *629:14 0.0422761
9 *31:13 *594:15 0.00806382
10 *37:17 *594:15 0.00330079
11 *66:13 *594:15 0.00936328
12 *78:21 *897:wbs_dat_i[26] 0.000415961
13 *585:17 *594:15 0.0225378
*RES
1 wbs_dat_i[26] *594:9 31.2411 
2 *594:9 *594:13 48.9279 
3 *594:13 *594:15 75.5368 
4 *594:15 *594:17 3.41 
5 *594:17 *594:19 82.7169 
6 *594:19 *897:wbs_dat_i[26] 8.0561 
*END

*D_NET *595 0.136777
*CONN
*P wbs_dat_i[27] I
*I *897:wbs_dat_i[27] I *D soc_sys
*CAP
1 wbs_dat_i[27] 0.000715908
2 *897:wbs_dat_i[27] 5.01093e-05
3 *595:21 0.0303223
4 *595:19 0.0302722
5 *595:17 0.0194498
6 *595:15 0.0201657
7 *595:15 wbs_dat_o[25] 0.000324894
8 *595:15 wbs_dat_o[26] 0.00064791
9 *595:15 wbs_dat_o[27] 3.05874e-05
10 *595:17 *623:18 0.0347485
11 *595:17 *624:14 0
12 *595:21 *655:29 0
13 *78:21 *897:wbs_dat_i[27] 4.88647e-05
14 *559:11 *595:17 0
15 *563:13 *595:15 0
*RES
1 wbs_dat_i[27] *595:15 19.9913 
2 *595:15 *595:17 77.9871 
3 *595:17 *595:19 3.41 
4 *595:19 *595:21 94.5421 
5 *595:21 *897:wbs_dat_i[27] 6.9751 
*END

*D_NET *596 0.140922
*CONN
*P wbs_dat_i[28] I
*I *897:wbs_dat_i[28] I *D soc_sys
*CAP
1 wbs_dat_i[28] 0.00162128
2 *897:wbs_dat_i[28] 2.50983e-05
3 *596:19 0.02512
4 *596:17 0.0250949
5 *596:15 0.0155438
6 *596:13 0.0155438
7 *596:11 0.00345593
8 *596:9 0.00507721
9 *897:wbs_dat_i[28] *628:12 9.5164e-05
10 *897:wbs_dat_i[28] *718:15 9.5164e-05
11 *596:9 wbs_dat_o[25] 0
12 *596:19 *628:14 0
13 *113:13 *596:15 0.00566659
14 *141:13 *596:15 0.00987004
15 *558:19 *596:15 0.0337134
*RES
1 wbs_dat_i[28] *596:9 31.2411 
2 *596:9 *596:11 64.3393 
3 *596:11 *596:13 3.41 
4 *596:13 *596:15 81.6625 
5 *596:15 *596:17 3.41 
6 *596:17 *596:19 79.4143 
7 *596:19 *897:wbs_dat_i[28] 6.9751 
*END

*D_NET *597 0.176972
*CONN
*P wbs_dat_i[29] I
*I *897:wbs_dat_i[29] I *D soc_sys
*CAP
1 wbs_dat_i[29] 0.00163028
2 *897:wbs_dat_i[29] 0.000503681
3 *597:19 0.0259382
4 *597:17 0.0254346
5 *597:15 0.00915379
6 *597:13 0.00915379
7 *597:11 0.0031272
8 *597:9 0.00475748
9 *897:wbs_dat_i[29] *709:15 0.000484011
10 *897:wbs_dat_i[29] *718:15 0.00141643
11 *897:wbs_adr_i[29] *897:wbs_dat_i[29] 4.98422e-05
12 *141:13 *597:15 0.0019582
13 *143:39 *597:15 0.0517991
14 *561:15 *597:15 0.0415653
15 *564:15 *597:19 0
*RES
1 wbs_dat_i[29] *597:9 31.2411 
2 *597:9 *597:11 58.2679 
3 *597:11 *597:13 3.41 
4 *597:13 *597:15 81.158 
5 *597:15 *597:17 3.41 
6 *597:17 *597:19 80.3731 
7 *597:19 *897:wbs_dat_i[29] 9.8421 
*END

*D_NET *598 0.0915401
*CONN
*P wbs_dat_i[2] I
*I *897:wbs_dat_i[2] I *D soc_sys
*CAP
1 wbs_dat_i[2] 0.00307682
2 *897:wbs_dat_i[2] 1.72233e-05
3 *598:17 0.0289779
4 *598:15 0.0320375
5 *897:wbs_dat_i[2] *630:16 4.98422e-05
6 *598:15 *601:11 0.00852165
7 *598:15 *641:13 0.00652219
8 *598:15 *643:13 0
9 *75:28 *598:17 0.00337307
10 *75:30 *598:17 0.0018867
11 *78:19 *897:wbs_dat_i[2] 4.98422e-05
12 *125:28 *598:17 0.00386453
13 *565:13 *598:15 0.000213051
14 *573:9 *598:17 0.000232309
15 *573:11 *598:17 0.000592285
16 *576:11 *598:15 0.00212512
*RES
1 wbs_dat_i[2] *598:15 25.4404 
2 *598:15 *598:17 96.0335 
3 *598:17 *897:wbs_dat_i[2] 6.90303 
*END

*D_NET *599 0.146129
*CONN
*P wbs_dat_i[30] I
*I *897:wbs_dat_i[30] I *D soc_sys
*CAP
1 wbs_dat_i[30] 0.00116688
2 *897:wbs_dat_i[30] 0.000499454
3 *599:15 0.0297755
4 *599:13 0.0292761
5 *599:11 0.0215549
6 *599:9 0.0227218
7 *897:wbs_dat_i[30] *676:23 0.000944536
8 *897:wbs_dat_i[30] *709:15 0.000662104
9 *897:wbs_dat_i[30] *718:15 0.000944536
10 *897:wbs_dat_i[30] *735:15 0.000658789
11 *599:11 *625:14 0
12 *599:11 *628:18 0
13 *560:11 *599:11 0.0377802
14 *566:9 *599:9 0
15 *566:15 *897:wbs_dat_i[30] 0.000143889
16 *566:15 *599:15 0
17 *591:19 *599:11 0
*RES
1 wbs_dat_i[30] *599:9 25.6689 
2 *599:9 *599:11 84.0407 
3 *599:11 *599:13 3.41 
4 *599:13 *599:15 91.9853 
5 *599:15 *897:wbs_dat_i[30] 16.5869 
*END

*D_NET *600 0.16026
*CONN
*P wbs_dat_i[31] I
*I *897:wbs_dat_i[31] I *D soc_sys
*CAP
1 wbs_dat_i[31] 4.32496e-05
2 *897:wbs_dat_i[31] 0.000158012
3 *600:15 0.0185925
4 *600:13 0.0184345
5 *600:11 0.0252032
6 *600:9 0.0252032
7 *600:7 0.00301722
8 *600:5 0.00306047
9 *897:wbs_dat_i[31] *676:23 0.000675432
10 *897:wbs_dat_i[31] *718:15 0.000675432
11 *600:15 *632:18 0.0408861
12 *531:5 *600:15 0.000574639
13 *550:17 *600:11 0
14 *564:11 *600:11 0
15 *589:11 *600:11 0.0237362
16 *592:11 *600:11 0
*RES
1 wbs_dat_i[31] *600:5 0.883929 
2 *600:5 *600:7 57.1964 
3 *600:7 *600:9 3.41 
4 *600:9 *600:11 87.8602 
5 *600:11 *600:13 3.41 
6 *600:13 *600:15 85.9129 
7 *600:15 *897:wbs_dat_i[31] 7.91197 
*END

*D_NET *601 0.0957778
*CONN
*P wbs_dat_i[3] I
*I *897:wbs_dat_i[3] I *D soc_sys
*CAP
1 wbs_dat_i[3] 0.00539673
2 *897:wbs_dat_i[3] 0.00012378
3 *601:13 0.028999
4 *601:11 0.034272
5 *601:11 *643:13 0
6 *601:13 *607:15 0.001063
7 *78:21 *897:wbs_dat_i[3] 0.000685406
8 *119:14 *601:13 0.00993122
9 *540:33 *897:wbs_dat_i[3] 0.000685406
10 *544:9 *601:13 0.000121549
11 *544:11 *601:13 0.000568577
12 *568:11 *601:11 0.00540944
13 *598:15 *601:11 0.00852165
*RES
1 wbs_dat_i[3] *601:11 27.2953 
2 *601:11 *601:13 96.0335 
3 *601:13 *897:wbs_dat_i[3] 7.91197 
*END

*D_NET *602 0.091311
*CONN
*P wbs_dat_i[4] I
*I *897:wbs_dat_i[4] I *D soc_sys
*CAP
1 wbs_dat_i[4] 0.00604577
2 *897:wbs_dat_i[4] 0.000584446
3 *602:15 0.0296309
4 *602:13 0.0350923
5 *897:wbs_dat_i[4] *634:16 0.000931645
6 *602:13 wbs_dat_o[4] 0
7 *602:13 wbs_dat_o[6] 0.00897063
8 *602:13 *643:13 0
9 *897:wbs_adr_i[3] *897:wbs_dat_i[4] 0.00092834
10 *70:16 *602:15 0.0066611
11 *78:21 *897:wbs_dat_i[4] 0.00085302
12 *540:33 *897:wbs_dat_i[4] 0.00085302
13 *543:13 *602:13 0
14 *569:19 *897:wbs_dat_i[4] 5.87752e-05
15 *569:19 *602:15 0
16 *578:13 *602:15 0.00070109
*RES
1 wbs_dat_i[4] *602:13 37.1652 
2 *602:13 *602:15 94.2225 
3 *602:15 *897:wbs_dat_i[4] 16.8752 
*END

*D_NET *603 0.0855843
*CONN
*P wbs_dat_i[5] I
*I *897:wbs_dat_i[5] I *D soc_sys
*CAP
1 wbs_dat_i[5] 0.0023362
2 *897:wbs_dat_i[5] 0.00118766
3 *603:15 0.0298841
4 *603:13 0.0360302
5 *603:9 0.00966997
6 *603:13 *606:13 0
7 *603:13 *610:16 0.0023001
8 *603:13 *635:16 0
9 *603:15 *634:16 1.68489e-05
10 *897:wbs_adr_i[3] *897:wbs_dat_i[5] 0.00200147
11 *78:21 *897:wbs_dat_i[5] 0.000934988
12 *115:14 *897:wbs_dat_i[5] 0.000143889
13 *540:33 *897:wbs_dat_i[5] 0.000934988
14 *570:15 *897:wbs_dat_i[5] 0.000143889
*RES
1 wbs_dat_i[5] *603:9 49.3475 
2 *603:9 *603:13 24.9689 
3 *603:13 *603:15 87.8305 
4 *603:15 *897:wbs_dat_i[5] 18.7489 
*END

*D_NET *604 0.0841922
*CONN
*P wbs_dat_i[6] I
*I *897:wbs_dat_i[6] I *D soc_sys
*CAP
1 wbs_dat_i[6] 0.0017063
2 *897:wbs_dat_i[6] 5.01093e-05
3 *604:15 0.0280958
4 *604:13 0.0374733
5 *604:9 0.0111338
6 *604:13 *606:13 0
7 *604:15 *897:adc_data[4] 5.69098e-05
8 *604:15 *636:10 0
9 *71:25 *604:15 0
10 *78:21 *897:wbs_dat_i[6] 4.88647e-05
11 *80:22 *604:15 0.00328741
12 *543:15 *604:9 0.000455616
13 *548:11 *604:13 0.00176986
14 *550:13 *604:15 0.000114258
15 *572:13 *604:13 0
*RES
1 wbs_dat_i[6] *604:9 37.0082 
2 *604:9 *604:13 31.8152 
3 *604:13 *604:15 90.1742 
4 *604:15 *897:wbs_dat_i[6] 6.9751 
*END

*D_NET *605 0.0897785
*CONN
*P wbs_dat_i[7] I
*I *897:wbs_dat_i[7] I *D soc_sys
*CAP
1 wbs_dat_i[7] 0.00111354
2 *897:wbs_dat_i[7] 0.000307373
3 *605:15 0.0283246
4 *605:13 0.0369798
5 *605:9 0.0100761
6 *605:9 *637:18 0
7 *605:13 *611:20 0
8 *78:21 *897:wbs_dat_i[7] 0.000356027
9 *545:13 *605:13 0
10 *546:21 *605:13 0.00711556
11 *552:11 *605:15 0.000457031
12 *572:13 *605:13 0
13 *572:15 *605:15 0.00504855
*RES
1 wbs_dat_i[7] *605:9 25.0618 
2 *605:9 *605:13 33.1124 
3 *605:13 *605:15 92.1983 
4 *605:15 *897:wbs_dat_i[7] 7.91197 
*END

*D_NET *606 0.109125
*CONN
*P wbs_dat_i[8] I
*I *897:wbs_dat_i[8] I *D soc_sys
*CAP
1 wbs_dat_i[8] 0.00204592
2 *897:wbs_dat_i[8] 0.000203838
3 *606:15 0.0200518
4 *606:13 0.029794
5 *606:9 0.0119919
6 *897:wbs_dat_i[8] *638:8 0.00041544
7 *606:9 *638:18 0
8 *606:13 *612:14 0
9 *606:13 *613:14 0.00411157
10 *606:15 *638:10 0.0403618
11 *78:21 *897:wbs_dat_i[8] 4.31981e-05
12 *548:11 *606:13 0
13 *555:7 *606:15 0.000105594
14 *603:13 *606:13 0
15 *604:13 *606:13 0
*RES
1 wbs_dat_i[8] *606:9 43.4904 
2 *606:9 *606:13 35.7068 
3 *606:13 *606:15 89.1089 
4 *606:15 *897:wbs_dat_i[8] 7.6237 
*END

*D_NET *607 0.108507
*CONN
*P wbs_dat_i[9] I
*I *897:wbs_dat_i[9] I *D soc_sys
*CAP
1 wbs_dat_i[9] 0.000684236
2 *897:wbs_dat_i[9] 3.163e-05
3 *607:23 0.0237186
4 *607:21 0.0286954
5 *607:15 0.00783463
6 *607:13 0.00351047
7 *607:13 wbs_dat_o[6] 0.000210893
8 *607:13 *643:13 0.00116869
9 *607:15 *639:18 0
10 *607:21 *639:16 0.0101076
11 *607:23 *639:10 0.00458379
12 *39:37 *607:21 0.0212751
13 *78:21 *897:wbs_dat_i[9] 2.48858e-05
14 *544:9 *607:15 0.0020333
15 *544:11 *607:15 0.001535
16 *556:15 *607:21 0.00203007
17 *574:9 *607:13 0
18 *601:13 *607:15 0.001063
*RES
1 wbs_dat_i[9] *607:13 14.5347 
2 *607:13 *607:15 77.2321 
3 *607:15 *607:21 40.8464 
4 *607:21 *607:23 81.545 
5 *607:23 *897:wbs_dat_i[9] 6.90303 
*END

*D_NET *608 0.0808681
*CONN
*P wbs_dat_o[0] O
*I *897:wbs_dat_o[0] O *D soc_sys
*CAP
1 wbs_dat_o[0] 0.00112722
2 *897:wbs_dat_o[0] 0.00440985
3 *608:27 0.0278537
4 *608:25 0.0311363
5 *608:25 *897:wbs_we_i 0.00496265
6 *897:wbs_adr_i[0] *608:25 9.40859e-05
7 *76:57 *608:25 0
8 *78:19 *608:25 0.000355202
9 *121:25 *608:25 0.000822797
10 *121:25 *608:27 0.000170375
11 *129:47 *608:25 0.00131212
12 *542:28 *608:25 0.00108971
13 *543:13 wbs_dat_o[0] 0.0044329
14 *554:13 wbs_dat_o[0] 0.000413078
15 *576:11 wbs_dat_o[0] 0
16 *587:13 wbs_dat_o[0] 0.0026881
*RES
1 *897:wbs_dat_o[0] *608:25 35.3676 
2 *608:25 *608:27 80.2165 
3 *608:27 wbs_dat_o[0] 18.8119 
*END

*D_NET *609 0.111922
*CONN
*P wbs_dat_o[10] O
*I *897:wbs_dat_o[10] O *D soc_sys
*CAP
1 wbs_dat_o[10] 0.0015463
2 *897:wbs_dat_o[10] 0.000285662
3 *609:20 0.00386983
4 *609:16 0.00715169
5 *609:10 0.0289919
6 *609:8 0.0244494
7 *31:13 *609:16 0.00409768
8 *34:21 *609:16 0.0146047
9 *35:19 *609:20 5.39162e-05
10 *35:23 *609:16 6.8293e-05
11 *37:17 *609:16 0.00535073
12 *66:13 *609:16 0.00232251
13 *78:21 *609:8 0.000361774
14 *577:13 wbs_dat_o[10] 0
15 *577:23 *609:10 0.00463653
16 *581:15 *609:16 0.00453147
17 *585:17 *609:16 0.0095995
*RES
1 *897:wbs_dat_o[10] *609:8 7.91197 
2 *609:8 *609:10 82.7169 
3 *609:10 *609:16 44.738 
4 *609:16 *609:20 46.4643 
5 *609:20 wbs_dat_o[10] 30.2946 
*END

*D_NET *610 0.114136
*CONN
*P wbs_dat_o[11] O
*I *897:wbs_dat_o[11] O *D soc_sys
*CAP
1 wbs_dat_o[11] 0.00237809
2 *897:wbs_dat_o[11] 3.03678e-05
3 *610:16 0.0102037
4 *610:10 0.0364656
5 *610:8 0.0286704
6 *610:8 *611:12 9.5164e-05
7 *610:10 *611:14 0
8 *610:16 *612:14 0.0225496
9 *610:16 *617:14 0.0113942
10 *610:16 *635:16 0
11 *78:21 *610:8 4.88647e-05
12 *578:13 wbs_dat_o[11] 0
13 *603:13 *610:16 0.0023001
*RES
1 *897:wbs_dat_o[11] *610:8 6.9751 
2 *610:8 *610:10 87.937 
3 *610:10 *610:16 48.1252 
4 *610:16 wbs_dat_o[11] 46.5446 
*END

*D_NET *611 0.103188
*CONN
*P wbs_dat_o[12] O
*I *897:wbs_dat_o[12] O *D soc_sys
*CAP
1 wbs_dat_o[12] 0.00140157
2 *897:wbs_dat_o[12] 0.00168522
3 *611:20 0.0105712
4 *611:14 0.0392851
5 *611:12 0.0318007
6 *611:20 *616:14 0.00768378
7 *897:wbs_adr_i[12] *611:12 9.5164e-05
8 *897:wbs_dat_i[12] *611:12 9.5164e-05
9 *897:wbs_dat_i[13] *611:12 0.00041544
10 *78:21 *611:12 0.00111006
11 *546:21 *611:20 0
12 *547:7 wbs_dat_o[12] 0
13 *572:13 *611:20 0.00894897
14 *578:21 *611:14 0
15 *584:17 *611:20 0
16 *605:13 *611:20 0
17 *610:8 *611:12 9.5164e-05
18 *610:10 *611:14 0
*RES
1 *897:wbs_dat_o[12] *611:12 13.013 
2 *611:12 *611:14 91.133 
3 *611:14 *611:20 44.4498 
4 *611:20 wbs_dat_o[12] 27.5268 
*END

*D_NET *612 0.109473
*CONN
*P wbs_dat_o[13] O
*I *897:wbs_dat_o[13] O *D soc_sys
*CAP
1 wbs_dat_o[13] 6.76427e-05
2 *897:wbs_dat_o[13] 5.01093e-05
3 *612:22 0.00240976
4 *612:14 0.0131673
5 *612:10 0.0392765
6 *612:8 0.0285014
7 *612:14 *613:14 0
8 *612:14 *617:14 0.00340177
9 *78:21 *612:8 4.88647e-05
10 *551:19 *612:14 0
11 *580:9 *612:22 0
12 *606:13 *612:14 0
13 *610:16 *612:14 0.0225496
*RES
1 *897:wbs_dat_o[13] *612:8 6.9751 
2 *612:8 *612:10 88.0435 
3 *612:10 *612:14 49.7598 
4 *612:14 *612:22 49.1243 
5 *612:22 wbs_dat_o[13] 0.883929 
*END

*D_NET *613 0.121452
*CONN
*P wbs_dat_o[14] O
*I *897:wbs_dat_o[14] O *D soc_sys
*CAP
1 wbs_dat_o[14] 0.00088529
2 *897:wbs_dat_o[14] 5.01093e-05
3 *613:20 0.00297534
4 *613:14 0.00906632
5 *613:10 0.0357125
6 *613:8 0.0287863
7 *613:14 *620:14 0.0202734
8 *613:20 wbs_dat_o[15] 0
9 *78:21 *613:8 4.88647e-05
10 *548:11 *613:14 0
11 *551:19 *613:14 0.0183022
12 *568:11 wbs_dat_o[14] 0.000335952
13 *568:21 wbs_dat_o[14] 5.40377e-05
14 *579:15 wbs_dat_o[14] 0.000849517
15 *582:15 *613:10 0
16 *606:13 *613:14 0.00411157
17 *612:14 *613:14 0
*RES
1 *897:wbs_dat_o[14] *613:8 6.9751 
2 *613:8 *613:10 88.8958 
3 *613:10 *613:14 48.6068 
4 *613:14 *613:20 47.6236 
5 *613:20 wbs_dat_o[14] 8.06671 
*END

*D_NET *614 0.122259
*CONN
*P wbs_dat_o[15] O
*I *897:wbs_dat_o[15] O *D soc_sys
*CAP
1 wbs_dat_o[15] 0.00121196
2 *897:wbs_dat_o[15] 5.01093e-05
3 *614:14 0.0117972
4 *614:12 0.0105852
5 *614:10 0.0335515
6 *614:8 0.0336016
7 wbs_dat_o[15] wbs_dat_o[16] 0.000351248
8 wbs_dat_o[15] wbs_dat_o[6] 0.000367549
9 *614:14 *615:14 0.0306938
10 *614:14 *624:14 0
11 *78:21 *614:8 4.88647e-05
12 *550:13 wbs_dat_o[15] 0
13 *579:15 wbs_dat_o[15] 0
14 *580:17 *614:14 0
15 *613:20 wbs_dat_o[15] 0
*RES
1 *897:wbs_dat_o[15] *614:8 6.9751 
2 *614:8 *614:10 94.2225 
3 *614:10 *614:12 3.41 
4 *614:12 *614:14 48.0794 
5 *614:14 wbs_dat_o[15] 23.7394 
*END

*D_NET *615 0.13129
*CONN
*P wbs_dat_o[16] O
*I *897:wbs_dat_o[16] O *D soc_sys
*CAP
1 wbs_dat_o[16] 0.000413634
2 *897:wbs_dat_o[16] 0.000199456
3 *615:14 0.00840004
4 *615:12 0.0079864
5 *615:10 0.0306881
6 *615:8 0.0308876
7 *615:10 *654:23 0
8 *615:14 wbs_dat_o[18] 0
9 *615:14 wbs_dat_o[21] 0
10 *615:14 wbs_dat_o[6] 0.000260265
11 *615:14 *623:18 0.0211405
12 *615:14 *624:14 0
13 wbs_dat_o[15] wbs_dat_o[16] 0.000351248
14 *78:21 *615:8 0.000269125
15 *550:13 wbs_dat_o[16] 0
16 *583:19 *615:10 0
17 *588:13 *615:14 0
18 *591:17 *615:14 0
19 *614:14 *615:14 0.0306938
*RES
1 *897:wbs_dat_o[16] *615:8 7.6237 
2 *615:8 *615:10 94.329 
3 *615:10 *615:12 3.41 
4 *615:12 *615:14 52.4755 
5 *615:14 wbs_dat_o[16] 12.9189 
*END

*D_NET *616 0.151634
*CONN
*P wbs_dat_o[17] O
*I *897:wbs_dat_o[17] O *D soc_sys
*CAP
1 wbs_dat_o[17] 0.00100468
2 *897:wbs_dat_o[17] 0.000428665
3 *616:14 0.0113561
4 *616:12 0.0103514
5 *616:10 0.0195577
6 *616:8 0.0199864
7 *78:21 *616:8 0.000497115
8 *552:9 wbs_dat_o[17] 0
9 *562:11 *616:14 0.017617
10 *563:15 *616:14 0
11 *572:13 *616:14 0.000184099
12 *579:19 wbs_dat_o[17] 0.00216483
13 *579:23 *616:14 0.0175107
14 *584:17 *616:14 0
15 *584:21 *616:10 0.0432917
16 *611:20 *616:14 0.00768378
*RES
1 *897:wbs_dat_o[17] *616:8 8.34437 
2 *616:8 *616:10 91.0265 
3 *616:10 *616:12 3.41 
4 *616:12 *616:14 54.061 
5 *616:14 wbs_dat_o[17] 32.5618 
*END

*D_NET *617 0.135016
*CONN
*P wbs_dat_o[18] O
*I *897:wbs_dat_o[18] O *D soc_sys
*CAP
1 wbs_dat_o[18] 0.00165132
2 *897:wbs_dat_o[18] 5.01093e-05
3 *617:20 0.00379364
4 *617:14 0.0155828
5 *617:12 0.0134405
6 *617:10 0.0354734
7 *617:8 0.0355235
8 wbs_dat_o[18] wbs_dat_o[19] 0
9 *617:14 *632:22 0.0140302
10 *78:21 *617:8 4.88647e-05
11 *550:17 *617:14 0
12 *551:11 wbs_dat_o[18] 0
13 *551:19 *617:14 0
14 *555:7 *617:20 0
15 *564:11 *617:14 0
16 *567:11 *617:14 0.000625626
17 *585:11 wbs_dat_o[18] 0
18 *585:13 wbs_dat_o[18] 0
19 *592:11 *617:14 0
20 *610:16 *617:14 0.0113942
21 *612:14 *617:14 0.00340177
22 *615:14 wbs_dat_o[18] 0
*RES
1 *897:wbs_dat_o[18] *617:8 6.9751 
2 *617:8 *617:10 87.8305 
3 *617:10 *617:12 3.41 
4 *617:12 *617:14 54.4934 
5 *617:14 *617:20 48.2307 
6 *617:20 wbs_dat_o[18] 13.2867 
*END

*D_NET *618 0.127644
*CONN
*P wbs_dat_o[19] O
*I *897:wbs_dat_o[19] O *D soc_sys
*CAP
1 wbs_dat_o[19] 0.00335395
2 *897:wbs_dat_o[19] 5.01093e-05
3 *618:18 0.00671598
4 *618:16 0.00336203
5 *618:14 0.0114988
6 *618:12 0.0114988
7 *618:10 0.0270354
8 *618:8 0.0270855
9 wbs_dat_o[19] wbs_dat_o[21] 0
10 wbs_dat_o[19] wbs_dat_o[22] 0.00210203
11 *618:14 *627:16 0.000138347
12 *618:18 wbs_dat_o[23] 0
13 wbs_dat_o[18] wbs_dat_o[19] 0
14 *78:21 *618:8 4.88647e-05
15 *551:11 wbs_dat_o[19] 0.00383721
16 *557:11 *618:14 0
17 *559:9 *618:18 0
18 *577:21 *618:14 0.00027891
19 *588:13 wbs_dat_o[19] 0
20 *588:19 *618:14 0.0306376
21 *591:17 wbs_dat_o[19] 0
22 *593:15 *618:14 0
*RES
1 *897:wbs_dat_o[19] *618:8 6.9751 
2 *618:8 *618:10 84.5279 
3 *618:10 *618:12 3.41 
4 *618:12 *618:14 48.8722 
5 *618:14 *618:16 3.41 
6 *618:16 *618:18 64.4821 
7 *618:18 wbs_dat_o[19] 20.3001 
*END

*D_NET *619 0.0870853
*CONN
*P wbs_dat_o[1] O
*I *897:wbs_dat_o[1] O *D soc_sys
*CAP
1 wbs_dat_o[1] 0.00181791
2 *897:wbs_dat_o[1] 3.03678e-05
3 *619:10 0.0308371
4 *619:8 0.0290495
5 wbs_dat_o[1] *641:13 0.000276964
6 wbs_dat_o[1] *643:13 0.000836189
7 *619:10 *630:18 0
8 *897:wb_clk_i *619:8 9.5164e-05
9 *75:28 *619:10 0.00137797
10 *78:19 *619:8 4.88647e-05
11 *543:15 *619:10 0.00483443
12 *554:13 wbs_dat_o[1] 0.0071595
13 *565:13 wbs_dat_o[1] 0.00821054
14 *571:9 *619:10 0.000543577
15 *571:11 *619:10 0.00178654
16 *576:11 wbs_dat_o[1] 0.000180623
*RES
1 *897:wbs_dat_o[1] *619:8 6.9751 
2 *619:8 *619:10 95.6074 
3 *619:10 wbs_dat_o[1] 24.7736 
*END

*D_NET *620 0.133135
*CONN
*P wbs_dat_o[20] O
*I *897:wbs_dat_o[20] O *D soc_sys
*CAP
1 wbs_dat_o[20] 0.0020855
2 *897:wbs_dat_o[20] 5.01093e-05
3 *620:14 0.0137414
4 *620:12 0.0116559
5 *620:10 0.0286037
6 *620:8 0.0286538
7 *78:21 *620:8 4.88647e-05
8 *548:11 *620:14 0
9 *551:19 *620:14 0.00440005
10 *556:9 wbs_dat_o[20] 0
11 *556:11 wbs_dat_o[20] 0
12 *556:19 *620:10 0
13 *566:11 *620:14 0.023622
14 *567:11 *620:14 0
15 *613:14 *620:14 0.0202734
*RES
1 *897:wbs_dat_o[20] *620:8 6.9751 
2 *620:8 *620:10 89.0023 
3 *620:10 *620:12 3.41 
4 *620:12 *620:14 62.8531 
5 *620:14 wbs_dat_o[20] 44.0975 
*END

*D_NET *621 0.150726
*CONN
*P wbs_dat_o[21] O
*I *897:wbs_dat_o[21] O *D soc_sys
*CAP
1 wbs_dat_o[21] 0.00246346
2 *897:wbs_dat_o[21] 5.01093e-05
3 *621:14 0.0116715
4 *621:12 0.009208
5 *621:10 0.0313452
6 *621:8 0.0313953
7 wbs_dat_o[19] wbs_dat_o[21] 0
8 *78:21 *621:8 4.88647e-05
9 *551:15 wbs_dat_o[21] 0
10 *558:11 wbs_dat_o[21] 0.00230577
11 *563:15 *621:14 0.030743
12 *566:11 *621:14 0
13 *579:23 *621:14 0
14 *586:11 *621:14 0.0314947
15 *615:14 wbs_dat_o[21] 0
*RES
1 *897:wbs_dat_o[21] *621:8 6.9751 
2 *621:8 *621:10 90.0677 
3 *621:10 *621:12 3.41 
4 *621:12 *621:14 61.8442 
5 *621:14 wbs_dat_o[21] 48.4773 
*END

*D_NET *622 0.132386
*CONN
*P wbs_dat_o[22] O
*I *897:wbs_dat_o[22] O *D soc_sys
*CAP
1 wbs_dat_o[22] 0.00256945
2 *897:wbs_dat_o[22] 3.163e-05
3 *622:22 0.00637006
4 *622:20 0.00446641
5 *622:14 0.0145208
6 *622:12 0.013855
7 *622:10 0.0235886
8 *622:8 0.0236203
9 wbs_dat_o[22] wbs_dat_o[25] 0.00195064
10 wbs_dat_o[22] wbs_dat_o[26] 4.10599e-05
11 *622:10 *623:14 0.00457949
12 *622:22 wbs_dat_o[26] 5.79809e-05
13 wbs_dat_o[19] wbs_dat_o[22] 0.00210203
14 *39:37 *622:14 1.23383e-05
15 *78:21 *622:8 2.48858e-05
16 *143:39 *622:14 0
17 *556:15 *622:14 0.0298238
18 *559:11 wbs_dat_o[22] 0.00183946
19 *559:21 *622:14 0.000514228
20 *590:15 *622:14 0.00241778
21 *591:17 wbs_dat_o[22] 0
*RES
1 *897:wbs_dat_o[22] *622:8 6.90303 
2 *622:8 *622:10 81.3319 
3 *622:10 *622:12 3.41 
4 *622:12 *622:14 56.5833 
5 *622:14 *622:20 14.6421 
6 *622:20 *622:22 73.1429 
7 *622:22 wbs_dat_o[22] 19.332 
*END

*D_NET *623 0.144336
*CONN
*P wbs_dat_o[23] O
*I *897:wbs_dat_o[23] O *D soc_sys
*CAP
1 wbs_dat_o[23] 0.000483452
2 *897:wbs_dat_o[23] 0.0013891
3 *623:18 0.0116424
4 *623:16 0.011159
5 *623:14 0.0282808
6 *623:12 0.02967
7 *623:18 *624:14 0
8 *897:wbs_adr_i[23] *623:12 4.98422e-05
9 *897:wbs_dat_i[23] *623:12 9.5164e-05
10 *78:21 *623:12 0.0010978
11 *558:23 *623:14 0
12 *591:17 *623:18 0
13 *595:17 *623:18 0.0347485
14 *615:14 *623:18 0.0211405
15 *618:18 wbs_dat_o[23] 0
16 *622:10 *623:14 0.00457949
*RES
1 *897:wbs_dat_o[23] *623:12 11.7158 
2 *623:12 *623:14 94.329 
3 *623:14 *623:16 3.41 
4 *623:16 *623:18 65.4475 
5 *623:18 wbs_dat_o[23] 12.7225 
*END

*D_NET *624 0.160422
*CONN
*P wbs_dat_o[24] O
*I *897:wbs_dat_o[24] O *D soc_sys
*CAP
1 wbs_dat_o[24] 0.000785234
2 *897:wbs_dat_o[24] 0.000803129
3 *624:14 0.016097
4 *624:12 0.0153118
5 *624:10 0.0213395
6 *624:8 0.0221427
7 *624:14 *625:14 0.0376475
8 *897:wbs_dat_i[24] *624:8 0.000944536
9 *78:21 *624:8 0.000587344
10 *559:23 *624:10 0.0390005
11 *580:17 *624:14 0.0057188
12 *591:17 wbs_dat_o[24] 0
13 *591:19 *624:14 4.4457e-05
14 *592:15 *624:10 0
15 *595:17 *624:14 0
16 *614:14 *624:14 0
17 *615:14 *624:14 0
18 *623:18 *624:14 0
*RES
1 *897:wbs_dat_o[24] *624:8 10.074 
2 *624:8 *624:10 93.4767 
3 *624:10 *624:12 3.41 
4 *624:12 *624:14 69.195 
5 *624:14 wbs_dat_o[24] 18.5975 
*END

*D_NET *625 0.182661
*CONN
*P wbs_dat_o[25] O
*I *897:wbs_dat_o[25] O *D soc_sys
*CAP
1 wbs_dat_o[25] 0.00232982
2 *897:wbs_dat_o[25] 5.01093e-05
3 *625:14 0.0125934
4 *625:12 0.0102636
5 *625:10 0.0212643
6 *625:8 0.0213144
7 wbs_dat_o[25] wbs_dat_o[26] 0.00044106
8 wbs_dat_o[25] wbs_dat_o[27] 0.000590514
9 wbs_dat_o[22] wbs_dat_o[25] 0.00195064
10 *78:21 *625:8 4.88647e-05
11 *561:19 *625:10 0.038459
12 *563:13 wbs_dat_o[25] 0
13 *591:19 *625:14 0.0353831
14 *595:15 wbs_dat_o[25] 0.000324894
15 *596:9 wbs_dat_o[25] 0
16 *599:11 *625:14 0
17 *624:14 *625:14 0.0376475
*RES
1 *897:wbs_dat_o[25] *625:8 6.9751 
2 *625:8 *625:10 93.3702 
3 *625:10 *625:12 3.41 
4 *625:12 *625:14 68.4743 
5 *625:14 wbs_dat_o[25] 33.8268 
*END

*D_NET *626 0.169525
*CONN
*P wbs_dat_o[26] O
*I *897:wbs_dat_o[26] O *D soc_sys
*CAP
1 wbs_dat_o[26] 0.00225957
2 *897:wbs_dat_o[26] 5.01093e-05
3 *626:18 0.00594428
4 *626:16 0.00368471
5 *626:14 0.0103143
6 *626:12 0.0103143
7 *626:10 0.0177413
8 *626:8 0.0177914
9 wbs_dat_o[26] wbs_dat_o[27] 0.00294115
10 wbs_dat_o[26] *631:14 0.00321689
11 *626:14 *627:16 0
12 wbs_dat_o[22] wbs_dat_o[26] 4.10599e-05
13 wbs_dat_o[25] wbs_dat_o[26] 0.00044106
14 *31:13 *626:14 0.00396723
15 *66:13 *626:14 0.0105658
16 *78:21 *626:8 4.88647e-05
17 *557:11 *626:14 0.0236946
18 *559:11 wbs_dat_o[26] 0.0102746
19 *562:15 *626:10 0.0398533
20 *593:15 *626:14 0.00567503
21 *595:15 wbs_dat_o[26] 0.00064791
22 *622:22 wbs_dat_o[26] 5.79809e-05
*RES
1 *897:wbs_dat_o[26] *626:8 6.9751 
2 *626:8 *626:10 83.4626 
3 *626:10 *626:12 3.41 
4 *626:12 *626:14 61.3397 
5 *626:14 *626:16 3.41 
6 *626:16 *626:18 69.9464 
7 *626:18 wbs_dat_o[26] 24.9647 
*END

*D_NET *627 0.130393
*CONN
*P wbs_dat_o[27] O
*I *897:wbs_dat_o[27] O *D soc_sys
*CAP
1 wbs_dat_o[27] 0.00835469
2 *897:wbs_dat_o[27] 2.82872e-05
3 *627:18 0.0117492
4 *627:16 0.0179872
5 *627:10 0.0414082
6 *627:8 0.0268438
7 wbs_dat_o[27] *631:14 0.0191294
8 *627:8 *718:15 4.98422e-05
9 wbs_dat_o[25] wbs_dat_o[27] 0.000590514
10 wbs_dat_o[26] wbs_dat_o[27] 0.00294115
11 *588:19 *627:16 0.00114218
12 *593:15 *627:16 0
13 *595:15 wbs_dat_o[27] 3.05874e-05
14 *618:14 *627:16 0.000138347
15 *626:14 *627:16 0
*RES
1 *897:wbs_dat_o[27] *627:8 6.90303 
2 *627:8 *627:10 84.4214 
3 *627:10 *627:16 48.4134 
4 *627:16 *627:18 65.6964 
5 *627:18 wbs_dat_o[27] 46.5515 
*END

*D_NET *628 0.146355
*CONN
*P wbs_dat_o[28] O
*I *897:wbs_dat_o[28] O *D soc_sys
*CAP
1 wbs_dat_o[28] 0.00145659
2 *897:wbs_dat_o[28] 0.000561609
3 *628:18 0.0200459
4 *628:16 0.0185893
5 *628:14 0.029124
6 *628:12 0.0296856
7 *628:12 *709:15 0.000413572
8 *628:12 *718:15 0.00122707
9 *628:14 *709:17 1.33421e-05
10 *897:wbs_dat_i[28] *628:12 9.5164e-05
11 *560:11 *628:18 0
12 *562:11 *628:18 0.0451425
13 *563:15 *628:18 0
14 *563:19 *628:14 0
15 *564:7 wbs_dat_o[28] 0
16 *584:17 *628:18 0
17 *596:19 *628:14 0
18 *599:11 *628:18 0
*RES
1 *897:wbs_dat_o[28] *628:12 9.55383 
2 *628:12 *628:14 91.133 
3 *628:14 *628:16 3.41 
4 *628:16 *628:18 79.5726 
5 *628:18 wbs_dat_o[28] 31.3475 
*END

*D_NET *629 0.164421
*CONN
*P wbs_dat_o[29] O
*I *897:wbs_dat_o[29] O *D soc_sys
*CAP
1 wbs_dat_o[29] 0.00166819
2 *897:wbs_dat_o[29] 0.000192543
3 *629:18 0.00416136
4 *629:14 0.0133226
5 *629:12 0.0108294
6 *629:10 0.0261725
7 *629:8 0.0263651
8 *629:8 *718:15 0.000675432
9 *629:8 *735:15 0.000350279
10 *629:10 *735:17 0.00011129
11 *31:13 *629:14 0.00522001
12 *33:21 *629:14 0.0300116
13 *37:17 *629:14 2.63501e-05
14 *66:13 *629:14 0.00303812
15 *594:15 *629:14 0.0422761
*RES
1 *897:wbs_dat_o[29] *629:8 7.91197 
2 *629:8 *629:10 82.6103 
3 *629:10 *629:12 3.41 
4 *629:12 *629:14 83.6804 
5 *629:14 *629:18 49.535 
6 *629:18 wbs_dat_o[29] 31.2411 
*END

*D_NET *630 0.0839704
*CONN
*P wbs_dat_o[2] O
*I *897:wbs_dat_o[2] O *D soc_sys
*CAP
1 wbs_dat_o[2] 0.00435858
2 *897:wbs_dat_o[2] 0.00161793
3 *630:18 0.0361329
4 *630:16 0.0333923
5 wbs_dat_o[2] *641:13 0.000100938
6 *630:18 *635:18 0.00110511
7 *897:wb_clk_i *630:16 0.00157512
8 *897:wbs_adr_i[0] *630:16 0.00111633
9 *897:wbs_dat_i[2] *630:16 4.98422e-05
10 *78:19 *630:16 0.000797154
11 *125:28 *630:16 0.000147713
12 *541:45 *630:18 0
13 *542:28 *630:16 0.00347556
14 *576:11 wbs_dat_o[2] 0.000100938
15 *619:10 *630:18 0
*RES
1 *897:wbs_dat_o[2] *630:16 22.064 
2 *630:16 *630:18 95.6074 
3 *630:18 wbs_dat_o[2] 10.5669 
*END

*D_NET *631 0.145059
*CONN
*P wbs_dat_o[30] O
*I *897:wbs_dat_o[30] O *D soc_sys
*CAP
1 wbs_dat_o[30] 6.49481e-05
2 *897:wbs_dat_o[30] 0.000108156
3 *631:14 0.018157
4 *631:12 0.018092
5 *631:10 0.0305253
6 *631:8 0.0306335
7 *631:8 *676:23 0.000689957
8 *631:8 *718:15 0.000689957
9 wbs_dat_o[26] *631:14 0.00321689
10 wbs_dat_o[27] *631:14 0.0191294
11 *529:9 *631:14 0.00438665
12 *530:11 *631:14 0.00520939
13 *559:11 *631:14 0.0141558
*RES
1 *897:wbs_dat_o[30] *631:8 7.91197 
2 *631:8 *631:10 95.8205 
3 *631:10 *631:12 3.41 
4 *631:12 *631:14 85.9144 
5 *631:14 wbs_dat_o[30] 4.70464 
*END

*D_NET *632 0.192619
*CONN
*P wbs_dat_o[31] O
*I *897:wbs_dat_o[31] O *D soc_sys
*CAP
1 wbs_dat_o[31] 0.00247118
2 *897:wbs_dat_o[31] 0.000622444
3 *632:22 0.020333
4 *632:20 0.0178618
5 *632:18 0.0163241
6 *632:16 0.0169465
7 *632:16 *676:23 0.000867992
8 *632:16 *709:15 0.00100319
9 *632:16 *718:15 0.000867992
10 *632:16 *735:15 0.000999876
11 *632:16 *768:14 9.27738e-06
12 *531:5 *632:18 0.000427824
13 *564:11 *632:22 0
14 *567:11 *632:22 0.0540628
15 *567:15 *632:18 0.00490462
16 *600:15 *632:18 0.0408861
17 *617:14 *632:22 0.0140302
*RES
1 *897:wbs_dat_o[31] *632:16 17.0193 
2 *632:16 *632:18 87.6174 
3 *632:18 *632:20 3.41 
4 *632:20 *632:22 86.7792 
5 *632:22 wbs_dat_o[31] 49.9546 
*END

*D_NET *633 0.104587
*CONN
*P wbs_dat_o[3] O
*I *897:wbs_dat_o[3] O *D soc_sys
*CAP
1 wbs_dat_o[3] 0.000446259
2 *897:wbs_dat_o[3] 2.50983e-05
3 *633:18 0.00311671
4 *633:16 0.00849074
5 *633:10 0.0223364
6 *633:8 0.0165412
7 *633:10 *634:18 0.00468357
8 *633:10 *643:15 0.0407967
9 *633:16 *635:16 0
10 *633:16 *637:16 0.00600258
11 *633:18 *643:13 7.88372e-05
12 *78:21 *633:8 9.5164e-05
13 *540:33 *633:8 9.5164e-05
14 *568:11 wbs_dat_o[3] 0
15 *569:9 *633:18 0
16 *587:15 *633:18 0.0018787
*RES
1 *897:wbs_dat_o[3] *633:8 6.9751 
2 *633:8 *633:10 86.0194 
3 *633:10 *633:16 27.1538 
4 *633:16 *633:18 54.9196 
5 *633:18 wbs_dat_o[3] 16.7321 
*END

*D_NET *634 0.085093
*CONN
*P wbs_dat_o[4] O
*I *897:wbs_dat_o[4] O *D soc_sys
*CAP
1 wbs_dat_o[4] 0.00696984
2 *897:wbs_dat_o[4] 0.00201549
3 *634:18 0.0338617
4 *634:16 0.0289073
5 *634:18 *643:15 0
6 *897:wbs_adr_i[3] *634:16 0.00140141
7 *897:wbs_dat_i[4] *634:16 0.000931645
8 *69:17 *634:18 0.00420233
9 *78:21 *634:16 0.00105143
10 *540:33 *634:16 0.00105143
11 *602:13 wbs_dat_o[4] 0
12 *603:15 *634:16 1.68489e-05
13 *633:10 *634:18 0.00468357
*RES
1 *897:wbs_dat_o[4] *634:16 21.594 
2 *634:16 *634:18 93.1571 
3 *634:18 wbs_dat_o[4] 39.0281 
*END

*D_NET *635 0.08485
*CONN
*P wbs_dat_o[5] O
*I *897:wbs_dat_o[5] O *D soc_sys
*CAP
1 wbs_dat_o[5] 7.32672e-05
2 *897:wbs_dat_o[5] 2.50983e-05
3 *635:18 0.00263363
4 *635:16 0.0117257
5 *635:10 0.030729
6 *635:8 0.0215888
7 *78:21 *635:8 9.5164e-05
8 *540:23 *635:10 0
9 *540:33 *635:8 9.5164e-05
10 *547:11 *635:16 0.00155573
11 *568:23 *635:10 0.0152233
12 *578:19 *635:16 0
13 *603:13 *635:16 0
14 *610:16 *635:16 0
15 *630:18 *635:18 0.00110511
16 *633:16 *635:16 0
*RES
1 *897:wbs_dat_o[5] *635:8 6.9751 
2 *635:8 *635:10 87.0847 
3 *635:10 *635:16 34.0001 
4 *635:16 *635:18 51.125 
5 *635:18 wbs_dat_o[5] 0.883929 
*END

*D_NET *636 0.0898734
*CONN
*P wbs_dat_o[6] O
*I *897:wbs_dat_o[6] O *D soc_sys
*CAP
1 wbs_dat_o[6] 0.00797922
2 *897:wbs_dat_o[6] 0.00018794
3 *636:10 0.0370008
4 *636:8 0.0292095
5 wbs_dat_o[6] *643:13 0
6 wbs_dat_o[15] wbs_dat_o[6] 0.000367549
7 *78:21 *636:8 0.00021445
8 *81:14 *636:10 0.00484069
9 *572:9 wbs_dat_o[6] 0
10 *577:13 wbs_dat_o[6] 0.000631555
11 *602:13 wbs_dat_o[6] 0.00897063
12 *604:15 *636:10 0
13 *607:13 wbs_dat_o[6] 0.000210893
14 *615:14 wbs_dat_o[6] 0.000260265
*RES
1 *897:wbs_dat_o[6] *636:8 7.47957 
2 *636:8 *636:10 94.5421 
3 *636:10 wbs_dat_o[6] 44.3413 
*END

*D_NET *637 0.0951737
*CONN
*P wbs_dat_o[7] O
*I *897:wbs_dat_o[7] O *D soc_sys
*CAP
1 wbs_dat_o[7] 7.32672e-05
2 *897:wbs_dat_o[7] 3.163e-05
3 *637:18 0.00297751
4 *637:16 0.01028
5 *637:10 0.0328315
6 *637:8 0.0254874
7 *78:21 *637:8 2.48858e-05
8 *553:11 *637:16 0.000233938
9 *573:19 *637:10 0.00447416
10 *578:19 *637:16 0.0127568
11 *605:9 *637:18 0
12 *633:16 *637:16 0.00600258
*RES
1 *897:wbs_dat_o[7] *637:8 6.90303 
2 *637:8 *637:10 85.8063 
3 *637:10 *637:16 38.6124 
4 *637:16 *637:18 57.8036 
5 *637:18 wbs_dat_o[7] 0.883929 
*END

*D_NET *638 0.112281
*CONN
*P wbs_dat_o[8] O
*I *897:wbs_dat_o[8] O *D soc_sys
*CAP
1 wbs_dat_o[8] 6.25633e-05
2 *897:wbs_dat_o[8] 0.000542851
3 *638:18 0.00326105
4 *638:16 0.0127282
5 *638:10 0.0274884
6 *638:8 0.0185016
7 *897:wbs_dat_i[8] *638:8 0.00041544
8 *78:21 *638:8 0.00148361
9 *553:11 *638:16 0
10 *555:11 *638:16 0.000273933
11 *574:17 *638:16 0
12 *577:21 *638:16 0.00716122
13 *606:9 *638:18 0
14 *606:15 *638:10 0.0403618
*RES
1 *897:wbs_dat_o[8] *638:8 9.20917 
2 *638:8 *638:10 84.741 
3 *638:10 *638:16 38.7565 
4 *638:16 *638:18 63.875 
5 *638:18 wbs_dat_o[8] 0.883929 
*END

*D_NET *639 0.093766
*CONN
*P wbs_dat_o[9] O
*I *897:wbs_dat_o[9] O *D soc_sys
*CAP
1 wbs_dat_o[9] 0.00158916
2 *897:wbs_dat_o[9] 0.000385848
3 *639:18 0.00434018
4 *639:16 0.0122288
5 *639:10 0.0333428
6 *639:8 0.0242508
7 *39:37 *639:16 0.000149675
8 *78:21 *639:8 0.00039299
9 *143:39 *639:16 0
10 *556:15 *639:16 0.00239442
11 *607:15 *639:18 0
12 *607:21 *639:16 0.0101076
13 *607:23 *639:10 0.00458379
*RES
1 *897:wbs_dat_o[9] *639:8 8.0561 
2 *639:8 *639:10 81.3319 
3 *639:10 *639:16 42.1436 
4 *639:16 *639:18 53.4107 
5 *639:18 wbs_dat_o[9] 31.2411 
*END

*D_NET *640 0.0855905
*CONN
*P wbs_sel_i[0] I
*I *897:wbs_sel_i[0] I *D soc_sys
*CAP
1 wbs_sel_i[0] 0.00216203
2 *897:wbs_sel_i[0] 2.50983e-05
3 *640:19 0.0219296
4 *640:17 0.0232965
5 *640:11 0.00432629
6 *640:9 0.00509632
7 *43:33 *640:17 0.00785577
8 *78:19 *897:wbs_sel_i[0] 9.5164e-05
9 *111:23 *640:19 0.0113923
10 *118:43 *640:17 0.00131641
11 *129:47 *897:wbs_sel_i[0] 9.5164e-05
12 *540:19 *640:17 0.008
13 *554:13 *640:9 0
14 *587:15 *640:19 0
*RES
1 wbs_sel_i[0] *640:9 44.1696 
2 *640:9 *640:11 57.4821 
3 *640:11 *640:17 19.3706 
4 *640:17 *640:19 78.6686 
5 *640:19 *897:wbs_sel_i[0] 6.9751 
*END

*D_NET *641 0.0857126
*CONN
*P wbs_sel_i[1] I
*I *897:wbs_sel_i[1] I *D soc_sys
*CAP
1 wbs_sel_i[1] 0.00187202
2 *897:wbs_sel_i[1] 2.0566e-05
3 *641:15 0.0292307
4 *641:13 0.0310821
5 *641:13 *642:13 0.000410005
6 wbs_dat_o[1] *641:13 0.000276964
7 wbs_dat_o[2] *641:13 0.000100938
8 *897:wb_clk_i *897:wbs_sel_i[1] 4.98422e-05
9 *78:19 *897:wbs_sel_i[1] 2.48858e-05
10 *543:15 *641:15 0
11 *565:13 *641:13 0.00923404
12 *565:15 *641:15 0.00515471
13 *576:11 *641:13 0.00173361
14 *598:15 *641:13 0.00652219
*RES
1 wbs_sel_i[1] *641:13 24.5466 
2 *641:13 *641:15 95.8205 
3 *641:15 *897:wbs_sel_i[1] 6.90303 
*END

*D_NET *642 0.0834004
*CONN
*P wbs_sel_i[2] I
*I *897:wbs_sel_i[2] I *D soc_sys
*CAP
1 wbs_sel_i[2] 0.000652509
2 *897:wbs_sel_i[2] 3.03678e-05
3 *642:23 0.027722
4 *642:21 0.0312324
5 *642:15 0.00822771
6 *642:13 0.00533951
7 *897:wb_clk_i *897:wbs_sel_i[2] 9.5164e-05
8 *78:19 *897:wbs_sel_i[2] 4.88647e-05
9 *113:13 *642:21 0.00288467
10 *141:13 *642:21 0.00213492
11 *568:11 *642:13 0.000106828
12 *573:17 *642:21 0.00204003
13 *576:13 *642:15 0.00247548
14 *641:13 *642:13 0.000410005
*RES
1 wbs_sel_i[2] *642:13 21.7679 
2 *642:13 *642:15 93.4732 
3 *642:15 *642:21 24.127 
4 *642:21 *642:23 79.5209 
5 *642:23 *897:wbs_sel_i[2] 6.9751 
*END

*D_NET *643 0.10673
*CONN
*P wbs_sel_i[3] I
*I *897:wbs_sel_i[3] I *D soc_sys
*CAP
1 wbs_sel_i[3] 0.00526035
2 *897:wbs_sel_i[3] 0.000214937
3 *643:15 0.0220801
4 *643:13 0.0271255
5 wbs_dat_o[1] *643:13 0.000836189
6 wbs_dat_o[6] *643:13 0
7 *78:21 *897:wbs_sel_i[3] 0.000944536
8 *540:33 *897:wbs_sel_i[3] 0.000944536
9 *543:13 *643:13 0.0044324
10 *545:9 *643:15 0.000243098
11 *554:13 *643:13 0.0010231
12 *565:13 *643:13 0.000384127
13 *569:9 *643:13 0
14 *577:13 *643:13 0.00119721
15 *598:15 *643:13 0
16 *601:11 *643:13 0
17 *602:13 *643:13 0
18 *607:13 *643:13 0.00116869
19 *633:10 *643:15 0.0407967
20 *633:18 *643:13 7.88372e-05
21 *634:18 *643:15 0
*RES
1 wbs_sel_i[3] *643:13 32.627 
2 *643:13 *643:15 95.2878 
3 *643:15 *897:wbs_sel_i[3] 8.34437 
*END

*D_NET *644 0.0748934
*CONN
*P wbs_stb_i I
*I *897:wbs_stb_i I *D soc_sys
*CAP
1 wbs_stb_i 0.00152406
2 *897:wbs_stb_i 0.000152053
3 *644:19 0.0239074
4 *644:17 0.0245904
5 *644:11 0.00453927
6 *644:9 0.00522831
7 *644:19 *645:13 0
8 *897:wb_clk_i *897:wbs_stb_i 0.000781463
9 *897:wbs_cyc_i *644:19 0.00352701
10 *40:35 *644:17 0.00287003
11 *78:19 *897:wbs_stb_i 0.000415961
12 *84:24 *644:19 0.000943858
13 *104:22 *644:17 0.000957184
14 *109:21 *644:17 0.000236873
15 *118:43 *644:17 0.000630518
16 *542:36 *644:17 0.00458892
*RES
1 wbs_stb_i *644:9 31.2411 
2 *644:9 *644:11 72.8393 
3 *644:11 *644:17 14.0376 
4 *644:17 *644:19 78.0294 
5 *644:19 *897:wbs_stb_i 8.0561 
*END

*D_NET *645 0.078097
*CONN
*P wbs_we_i I
*I *897:wbs_we_i I *D soc_sys
*CAP
1 wbs_we_i 0.00185774
2 *897:wbs_we_i 0.00448884
3 *645:13 0.0315426
4 *645:11 0.0289115
5 *897:wb_clk_i *897:wbs_we_i 0.000629248
6 *71:23 *645:13 0.000723767
7 *78:19 *897:wbs_we_i 0.000325313
8 *80:20 *897:wbs_we_i 0.00046289
9 *84:24 *645:13 0.000622872
10 *85:20 *897:wbs_we_i 4.09284e-05
11 *121:23 *897:wbs_we_i 0.000165799
12 *129:51 *897:wbs_we_i 4.18722e-05
13 *543:13 *645:11 0
14 *576:11 *645:11 0.00332091
15 *608:25 *897:wbs_we_i 0.00496265
16 *644:19 *645:13 0
*RES
1 wbs_we_i *645:11 15.1881 
2 *645:11 *645:13 82.2907 
3 *645:13 *897:wbs_we_i 23.107 
*END

*D_NET *646 0.497146
*CONN
*I *897:adc_data[0] I *D soc_sys
*I *892:data_out[0] O *D CF_ADC_SAR12
*CAP
1 *897:adc_data[0] 9.0094e-05
2 *892:data_out[0] 0.00227588
3 *646:30 0.0106224
4 *646:28 0.0106967
5 *646:22 0.00949725
6 *646:20 0.00933288
7 *646:18 0.00310162
8 *646:16 0.00338223
9 *646:10 0.0192019
10 *646:8 0.0211972
11 *646:8 *892:sel_csel_dft[0] 0.0120735
12 *646:8 *892:dft_outc[1] 0.000682583
13 *646:8 *647:23 0.00960195
14 *646:8 *648:19 0.000793291
15 *646:8 *776:35 0.00031002
16 *646:10 *648:21 0.0592568
17 *646:10 *701:9 0.0186781
18 *646:10 *719:9 0.00997913
19 *646:10 *769:9 0.000532017
20 *646:18 *650:25 0.00254653
21 *646:18 *829:21 0.0175099
22 *646:18 *869:9 0.0175116
23 *646:22 *647:31 0.00081621
24 *646:22 *649:17 0.0423624
25 *646:22 *649:25 0.00335179
26 *646:28 *897:adc_data[8] 0
27 *646:30 *897:adc_data[4] 0.00440673
28 *646:30 *650:45 0.0445402
29 *646:30 *655:33 0.00712976
30 *40:25 *646:22 0.055553
31 *43:25 *646:22 0.000702743
32 *109:21 *646:22 0
33 *109:21 *646:30 0.00487784
34 *114:29 *646:30 0.0182861
35 *118:43 *646:30 0.00396546
36 *118:45 *646:30 0.00917905
37 *540:19 *646:30 0.0286211
38 *540:48 *646:30 0.000583746
39 *540:50 *646:22 0.00804684
40 *541:21 *646:30 0.00997593
41 *541:27 *646:30 0.0130268
42 *542:36 *646:30 0.00284697
*RES
1 *892:data_out[0] *646:8 25.985 
2 *646:8 *646:10 731.58 
3 *646:10 *646:16 12.8214 
4 *646:16 *646:18 216.571 
5 *646:18 *646:20 4.5 
6 *646:20 *646:22 534.054 
7 *646:22 *646:28 10.3118 
8 *646:28 *646:30 93.4454 
9 *646:30 *897:adc_data[0] 4.68679 
*END

*D_NET *647 0.288967
*CONN
*I *897:adc_data[10] I *D soc_sys
*I *892:data_out[10] O *D CF_ADC_SAR12
*CAP
1 *897:adc_data[10] 0
2 *892:data_out[10] 0.00233527
3 *647:33 0.00778148
4 *647:31 0.00872239
5 *647:25 0.0200481
6 *647:23 0.0214425
7 *647:23 *892:sample_width[5] 4.65519e-05
8 *647:23 *892:dft_outc[1] 0.000806523
9 *647:23 *648:19 0.00876342
10 *647:23 *657:7 0.000123009
11 *647:23 *726:13 4.65519e-05
12 *647:23 *776:35 0.000312957
13 *647:25 *665:9 0.00231165
14 *647:25 *670:9 0.0597357
15 *647:25 *687:9 0.0687865
16 *647:25 *770:9 0
17 *647:25 *791:9 0
18 *647:31 *897:adc_data[4] 0.0008149
19 *647:31 *648:41 0.000755491
20 *647:31 *649:17 0.000747708
21 *647:31 *656:29 0.000421763
22 *647:31 *819:19 0.000580795
23 *647:33 *897:adc_data[11] 0.000230115
24 *647:33 *897:adc_data[4] 0.00644655
25 *647:33 *648:41 0.0312643
26 *647:33 *650:45 0.00772503
27 *647:33 *656:29 3.66916e-05
28 *40:21 *647:25 0
29 *109:21 *647:33 0.00155706
30 *118:55 *647:31 0.000652564
31 *540:50 *647:31 0.00423239
32 *540:50 *647:33 0.0218211
33 *646:8 *647:23 0.00960195
34 *646:22 *647:31 0.00081621
*RES
1 *892:data_out[10] *647:23 32.2131 
2 *647:23 *647:25 949.089 
3 *647:25 *647:31 10.2046 
4 *647:31 *647:33 61.3397 
5 *647:33 *897:adc_data[10] 3.41 
*END

*D_NET *648 0.313296
*CONN
*I *897:adc_data[11] I *D soc_sys
*I *892:data_out[11] O *D CF_ADC_SAR12
*CAP
1 *897:adc_data[11] 0.000332062
2 *892:data_out[11] 0.00276411
3 *648:41 0.00585006
4 *648:39 0.005518
5 *648:37 0.00633428
6 *648:35 0.00869856
7 *648:21 0.0129626
8 *648:19 0.0133625
9 *897:adc_data[11] *650:43 7.69776e-06
10 *648:19 *892:sample_width[5] 0.000807548
11 *648:19 *892:test_sea 2.02652e-05
12 *648:19 *892:iso_en 0.0080217
13 *648:19 *892:dft_outc[1] 0.00153401
14 *648:19 *726:13 0.000807548
15 *648:19 *776:35 0.00118621
16 *648:21 *693:9 7.29243e-05
17 *648:21 *701:9 0.00105216
18 *648:21 *719:9 0.0102112
19 *648:21 *731:9 0.0611289
20 *648:35 *676:9 2.05695e-05
21 *648:35 *712:9 1.94945e-05
22 *648:35 *772:7 0
23 *648:35 *775:7 0.000862615
24 *648:35 *778:7 0.000874745
25 *648:37 *699:19 0
26 *648:37 *776:11 0
27 *648:37 *787:11 0.00796479
28 *648:41 *897:adc_data[4] 0.00524731
29 *648:41 *650:37 0.00507014
30 *648:41 *651:33 0.00545395
31 *648:41 *656:29 0.033033
32 *67:257 *648:37 0.00649711
33 *74:65 *648:37 0.0059992
34 *118:55 *648:41 0.000400038
35 *118:57 *648:37 0.000117371
36 *646:8 *648:19 0.000793291
37 *646:10 *648:21 0.0592568
38 *647:23 *648:19 0.00876342
39 *647:31 *648:41 0.000755491
40 *647:33 *897:adc_data[11] 0.000230115
41 *647:33 *648:41 0.0312643
*RES
1 *892:data_out[11] *648:19 33.7411 
2 *648:19 *648:21 756.625 
3 *648:21 *648:35 28.4901 
4 *648:35 *648:37 194.259 
5 *648:37 *648:39 3.41 
6 *648:39 *648:41 51.8629 
7 *648:41 *897:adc_data[11] 7.07964 
*END

*D_NET *649 0.414066
*CONN
*I *897:adc_data[1] I *D soc_sys
*I *892:data_out[1] O *D CF_ADC_SAR12
*CAP
1 *897:adc_data[1] 0
2 *892:data_out[1] 0.000207682
3 *649:25 0.0133889
4 *649:23 0.0134104
5 *649:17 0.00790072
6 *649:15 0.00787924
7 *649:13 0.0240793
8 *649:11 0.0240793
9 *649:9 0.00166353
10 *649:7 0.00187121
11 *649:7 *650:11 0.000174522
12 *649:7 *658:19 0.00010293
13 *649:9 *892:hiz 0.000905969
14 *649:9 *650:13 0.0106008
15 *649:9 *651:9 0.0111137
16 *649:9 *695:13 6.3629e-05
17 *649:9 *723:13 4.37451e-05
18 *649:9 *728:35 0.00104619
19 *649:13 *652:33 0.0183559
20 *649:13 *681:9 0
21 *649:13 *684:9 0
22 *649:13 *688:9 0.0111039
23 *649:13 *693:9 0.0686817
24 *649:13 *747:9 0
25 *649:13 *817:9 0.0213778
26 *649:13 *840:21 0
27 *649:17 *650:37 0.00217705
28 *649:17 *651:33 0.0106574
29 *649:25 *897:adc_data[4] 0.00745701
30 *649:25 *897:adc_data[5] 0.000367231
31 *649:25 *650:45 0.0320461
32 *43:23 *649:25 0.00037464
33 *104:22 *649:25 0.0121751
34 *109:21 *649:17 0.00084605
35 *109:21 *649:25 0.000333683
36 *118:43 *649:25 0.000189072
37 *540:50 *649:17 0.00867196
38 *540:50 *649:25 0.045597
39 *542:36 *649:25 0.00866031
40 *646:22 *649:17 0.0423624
41 *646:22 *649:25 0.00335179
42 *647:31 *649:17 0.000747708
*RES
1 *892:data_out[1] *649:7 9.26786 
2 *649:7 *649:9 106.911 
3 *649:9 *649:11 4.5 
4 *649:11 *649:13 957.286 
5 *649:13 *649:15 4.5 
6 *649:15 *649:17 400.571 
7 *649:17 *649:23 8.18679 
8 *649:23 *649:25 105.481 
9 *649:25 *897:adc_data[1] 3.41 
*END

*D_NET *650 0.43408
*CONN
*I *897:adc_data[2] I *D soc_sys
*I *892:data_out[2] O *D CF_ADC_SAR12
*CAP
1 *897:adc_data[2] 4.2919e-05
2 *892:data_out[2] 0.000208507
3 *650:45 0.0130637
4 *650:43 0.0130405
5 *650:37 0.00459289
6 *650:35 0.00467055
7 *650:25 0.0122723
8 *650:17 0.0314272
9 *650:15 0.0192523
10 *650:13 0.00155746
11 *650:11 0.00176597
12 *650:11 *651:7 0.000319977
13 *650:11 *652:11 1.76569e-05
14 *650:13 *657:19 0.000111763
15 *650:13 *672:21 0
16 *650:13 *694:21 0.000386145
17 *650:13 *719:21 0.0012628
18 *650:13 *723:13 0.0100361
19 *650:17 *656:25 0.0576119
20 *650:17 *673:17 0.000217881
21 *650:17 *711:9 0.0164014
22 *650:17 *747:9 0
23 *650:17 *762:17 0.0114349
24 *650:25 *897:sram_dat_i[0] 0.000300766
25 *650:25 *652:33 0.00607072
26 *650:25 *736:9 0.00750998
27 *650:25 *783:15 0.00326584
28 *650:25 *788:13 0.0011011
29 *650:25 *790:9 0
30 *650:25 *829:21 0.002114
31 *650:25 *854:7 2.37836e-05
32 *650:25 *859:7 0.000199758
33 *650:25 *859:9 0.00165695
34 *650:25 *869:9 0.00227649
35 *650:25 *881:9 0.0015313
36 *650:35 *898:wbs_dat_i[2] 0.000185406
37 *650:35 *656:25 4.20146e-05
38 *650:35 *788:13 1.66787e-05
39 *650:35 *819:19 0.000327344
40 *650:37 *651:33 0.0270183
41 *650:37 *656:29 0.00168501
42 *650:37 *819:19 0.00022614
43 *650:45 *897:adc_data[4] 0.00860072
44 *650:45 *897:adc_data[5] 0.000372059
45 *650:45 *655:33 0.000200028
46 *650:45 *656:29 0.0227302
47 *897:adc_data[11] *650:43 7.69776e-06
48 *43:23 *650:45 0.000382342
49 *43:25 *650:45 0.00576753
50 *109:21 *650:37 0.0344972
51 *118:43 *650:45 0.000113942
52 *540:50 *650:35 7.30306e-05
53 *540:50 *650:45 6.06458e-05
54 *542:36 *650:45 0.00114766
55 *646:18 *650:25 0.00254653
56 *646:30 *650:45 0.0445402
57 *647:33 *650:45 0.00772503
58 *648:41 *650:37 0.00507014
59 *649:7 *650:11 0.000174522
60 *649:9 *650:13 0.0106008
61 *649:17 *650:37 0.00217705
62 *649:25 *650:45 0.0320461
*RES
1 *892:data_out[2] *650:11 10.0268 
2 *650:11 *650:13 100.75 
3 *650:13 *650:15 4.5 
4 *650:15 *650:17 717.312 
5 *650:17 *650:25 49.6762 
6 *650:25 *650:35 12.4158 
7 *650:35 *650:37 324.589 
8 *650:37 *650:43 8.18679 
9 *650:43 *650:45 106.129 
10 *650:45 *897:adc_data[2] 4.07964 
*END

*D_NET *651 0.373506
*CONN
*I *897:adc_data[3] I *D soc_sys
*I *892:data_out[3] O *D CF_ADC_SAR12
*CAP
1 *897:adc_data[3] 0.000238471
2 *892:data_out[3] 0.000135226
3 *651:41 0.0153179
4 *651:39 0.0153333
5 *651:33 0.00518599
6 *651:31 0.00502323
7 *651:21 0.0130259
8 *651:13 0.037996
9 *651:11 0.0250612
10 *651:9 0.00174783
11 *651:7 0.00188306
12 *651:7 *652:11 0.000318453
13 *651:9 *892:hiz 0.000824782
14 *651:9 *695:13 0.0118065
15 *651:9 *728:35 0.00113188
16 *651:13 *658:21 0.0186476
17 *651:13 *691:9 0.0161025
18 *651:13 *697:19 4.04292e-05
19 *651:13 *709:9 0.0160946
20 *651:13 *735:9 4.93137e-05
21 *651:13 *769:9 0
22 *651:13 *840:21 0
23 *651:13 *852:13 0
24 *651:13 *865:9 0
25 *651:13 *872:9 0
26 *651:21 *897:sram_dat_i[0] 0.000115154
27 *651:21 *658:21 0.00335812
28 *651:21 *697:9 0.000973476
29 *651:21 *718:9 0.00923327
30 *651:21 *757:9 0
31 *651:21 *823:17 0.00235499
32 *651:21 *848:23 0.00162452
33 *651:21 *850:13 0.00111629
34 *651:21 *854:7 0.000111841
35 *651:21 *858:9 0.00111629
36 *651:21 *868:9 0.00285672
37 *651:21 *888:11 0
38 *651:31 *898:wbs_dat_i[2] 0.000318581
39 *651:31 *819:19 0.00032532
40 *651:31 *891:9 0
41 *651:33 *656:29 0.00012071
42 *651:33 *819:19 0.000243851
43 *651:41 *897:adc_data[6] 0.0193659
44 *651:41 *657:25 0.0226564
45 *651:41 *658:25 0.00062205
46 *43:33 *651:41 0.0146374
47 *44:25 *651:41 0.0232883
48 *65:21 *651:41 0.010987
49 *109:21 *651:33 0.000631323
50 *541:27 *651:41 0.0169211
51 *648:41 *651:33 0.00545395
52 *649:9 *651:9 0.0111137
53 *649:17 *651:33 0.0106574
54 *650:11 *651:7 0.000319977
55 *650:37 *651:33 0.0270183
*RES
1 *892:data_out[3] *651:7 8.96429 
2 *651:7 *651:9 112.25 
3 *651:9 *651:11 4.5 
4 *651:11 *651:13 716.098 
5 *651:13 *651:21 49.7106 
6 *651:21 *651:31 12.1122 
7 *651:31 *651:33 265.857 
8 *651:33 *651:39 11.5261 
9 *651:39 *651:41 106.706 
10 *651:41 *897:adc_data[3] 7.11536 
*END

*D_NET *652 0.442071
*CONN
*I *897:adc_data[4] I *D soc_sys
*I *892:data_out[4] O *D CF_ADC_SAR12
*CAP
1 *897:adc_data[4] 0.081157
2 *892:data_out[4] 0.000326461
3 *652:33 0.124189
4 *652:31 0.0443963
5 *652:13 0.00236499
6 *652:11 0.00132729
7 *897:adc_data[4] *655:33 0.00753593
8 *897:adc_data[4] *656:29 0.00962314
9 *652:13 *892:sample_width[0] 0.000162575
10 *652:13 *657:9 0.00704331
11 *652:13 *694:21 0.00147958
12 *652:13 *723:13 0.00777966
13 *652:13 *775:21 0.000271379
14 *652:31 *892:sample_width[0] 2.44726e-05
15 *652:31 *657:19 0.000495881
16 *652:31 *695:13 0.000233689
17 *652:31 *696:13 0.000216716
18 *652:31 *719:19 0.00299727
19 *652:31 *728:35 0.00295705
20 *652:31 *777:9 1.5275e-05
21 *652:33 *658:21 0
22 *652:33 *672:9 0
23 *652:33 *684:9 0.000804938
24 *652:33 *688:9 0.00280611
25 *652:33 *693:9 0.0121271
26 *652:33 *719:9 0.0361717
27 *652:33 *736:9 0.00217743
28 *652:33 *783:15 0.00213547
29 *652:33 *817:9 0.00227649
30 *652:33 *824:21 0.00405609
31 *652:33 *851:13 0.00235396
32 *67:261 *897:adc_data[4] 0.00333755
33 *104:22 *897:adc_data[4] 0.00466733
34 *104:26 *652:31 9.43575e-05
35 *107:21 *897:adc_data[4] 0.00176447
36 *118:55 *897:adc_data[4] 0.00015349
37 *118:75 *652:31 1.84488e-05
38 *540:50 *897:adc_data[4] 0.00651747
39 *541:27 *897:adc_data[4] 0.00821856
40 *604:15 *897:adc_data[4] 5.69098e-05
41 *646:30 *897:adc_data[4] 0.00440673
42 *647:31 *897:adc_data[4] 0.0008149
43 *647:33 *897:adc_data[4] 0.00644655
44 *648:41 *897:adc_data[4] 0.00524731
45 *649:13 *652:33 0.0183559
46 *649:25 *897:adc_data[4] 0.00745701
47 *650:11 *652:11 1.76569e-05
48 *650:25 *652:33 0.00607072
49 *650:45 *897:adc_data[4] 0.00860072
50 *651:7 *652:11 0.000318453
*RES
1 *892:data_out[4] *652:11 10.6339 
2 *652:11 *652:13 73.6429 
3 *652:13 *652:31 25.9703 
4 *652:31 *652:33 168.157 
5 *652:33 *897:adc_data[4] 24.6795 
*END

*D_NET *653 0.207433
*CONN
*I *897:adc_data[5] I *D soc_sys
*I *892:data_out[5] O *D CF_ADC_SAR12
*CAP
1 *897:adc_data[5] 7.39523e-05
2 *892:data_out[5] 6.96588e-05
3 *653:18 0.0263735
4 *653:16 0.0262995
5 *653:14 0.0239411
6 *653:12 0.0239411
7 *653:10 0.0240664
8 *653:8 0.0241361
9 *653:8 *892:sel_csel_dft[0] 0
10 *653:10 *654:21 0.00264292
11 *653:10 *655:27 0.00134497
12 *653:10 *676:25 0.00403972
13 *653:14 *700:15 0.0377498
14 *653:14 *748:13 0.0120155
15 *653:14 *761:21 0
16 *111:27 *653:14 0
17 *574:19 *653:18 0
18 *649:25 *897:adc_data[5] 0.000367231
19 *650:45 *897:adc_data[5] 0.000372059
*RES
1 *892:data_out[5] *653:8 6.99077 
2 *653:8 *653:10 83.7822 
3 *653:10 *653:12 3.41 
4 *653:12 *653:14 110.021 
5 *653:14 *653:16 3.41 
6 *653:16 *653:18 81.9711 
7 *653:18 *897:adc_data[5] 7.4075 
*END

*D_NET *654 0.206741
*CONN
*I *897:adc_data[6] I *D soc_sys
*I *892:data_out[6] O *D CF_ADC_SAR12
*CAP
1 *897:adc_data[6] 0.00387559
2 *892:data_out[6] 0.0280112
3 *654:23 0.0546014
4 *654:21 0.078737
5 *654:21 *892:reset_n 0
6 *654:21 *655:27 0.000135914
7 *654:23 *892:refby2 8.33331e-06
8 *541:27 *897:adc_data[6] 0.0193626
9 *615:10 *654:23 0
10 *651:41 *897:adc_data[6] 0.0193659
11 *653:10 *654:21 0.00264292
*RES
1 *892:data_out[6] *654:21 26.9953 
2 *654:21 *654:23 159.101 
3 *654:23 *897:adc_data[6] 40.8458 
*END

*D_NET *655 0.257738
*CONN
*I *897:adc_data[7] I *D soc_sys
*I *892:data_out[7] O *D CF_ADC_SAR12
*CAP
1 *897:adc_data[7] 0.000137117
2 *892:data_out[7] 0.00664239
3 *655:33 0.00774288
4 *655:31 0.00760576
5 *655:29 0.051276
6 *655:27 0.0579184
7 *655:27 *676:25 0.00369069
8 *655:33 *656:29 0.0391721
9 *897:adc_data[4] *655:33 0.00753593
10 *18:29 *655:27 0
11 *118:45 *655:33 0.0205546
12 *541:27 *655:33 0.0466513
13 *595:21 *655:29 0
14 *646:30 *655:33 0.00712976
15 *650:45 *655:33 0.000200028
16 *653:10 *655:27 0.00134497
17 *654:21 *655:27 0.000135914
*RES
1 *892:data_out[7] *655:27 39.8848 
2 *655:27 *655:29 155.799 
3 *655:29 *655:31 3.41 
4 *655:31 *655:33 73.2307 
5 *655:33 *897:adc_data[7] 5.29393 
*END

*D_NET *656 0.368647
*CONN
*I *897:adc_data[8] I *D soc_sys
*I *892:data_out[8] O *D CF_ADC_SAR12
*CAP
1 *897:adc_data[8] 9.45075e-05
2 *892:data_out[8] 8.63162e-05
3 *656:29 0.0104668
4 *656:27 0.0103723
5 *656:25 0.0151386
6 *656:23 0.0159826
7 *656:13 0.00176515
8 *656:11 0.00100747
9 *656:11 *657:7 8.60631e-05
10 *656:13 *697:21 0.00714758
11 *656:13 *720:13 0.00714758
12 *656:13 *726:13 0.00138532
13 *656:23 *892:test_sea 0.00282734
14 *656:23 *892:iso_en 0.00154797
15 *656:23 *892:dft_outc[1] 0.00045027
16 *656:23 *777:9 0
17 *656:25 *673:17 0.0563798
18 *656:25 *711:9 0.00517141
19 *656:25 *736:9 0.000242985
20 *656:25 *762:17 0.0101228
21 *656:25 *788:13 0.0038003
22 *656:25 *792:9 0.0113016
23 *656:29 *808:19 0.000432668
24 *656:29 *819:19 0.00168863
25 *897:adc_data[4] *656:29 0.00962314
26 *109:21 *656:29 0.00917945
27 *114:29 *656:29 0.0124962
28 *118:45 *656:29 0.00662837
29 *118:55 *656:29 0.000149725
30 *118:75 *656:23 0.000200498
31 *541:27 *656:29 0.0108705
32 *646:28 *897:adc_data[8] 0
33 *647:31 *656:29 0.000421763
34 *647:33 *656:29 3.66916e-05
35 *648:41 *656:29 0.033033
36 *650:17 *656:25 0.0576119
37 *650:35 *656:25 4.20146e-05
38 *650:37 *656:29 0.00168501
39 *650:45 *656:29 0.0227302
40 *651:33 *656:29 0.00012071
41 *655:33 *656:29 0.0391721
*RES
1 *892:data_out[8] *656:11 6.29911 
2 *656:11 *656:13 67.4821 
3 *656:13 *656:23 18.5405 
4 *656:23 *656:25 953.339 
5 *656:25 *656:27 3.41 
6 *656:27 *656:29 92.5085 
7 *656:29 *897:adc_data[8] 4.68679 
*END

*D_NET *657 0.320523
*CONN
*I *897:adc_data[9] I *D soc_sys
*I *892:data_out[9] O *D CF_ADC_SAR12
*CAP
1 *897:adc_data[9] 0.000273371
2 *892:data_out[9] 0.000371254
3 *657:25 0.0118007
4 *657:23 0.0115274
5 *657:21 0.0163683
6 *657:19 0.0177405
7 *657:9 0.0024404
8 *657:7 0.00143946
9 *657:7 *892:iso_en 0
10 *657:7 *720:27 8.23597e-06
11 *657:7 *724:35 1.94945e-05
12 *657:9 *694:21 0.00160388
13 *657:9 *723:13 2.24804e-05
14 *657:9 *775:21 0.00387811
15 *657:19 *892:sample_width[0] 0.0048691
16 *657:19 *723:13 0.000103646
17 *657:19 *728:35 0.00322073
18 *657:19 *775:19 0.000176804
19 *657:21 *692:9 0
20 *657:21 *696:9 0.0689814
21 *657:21 *715:9 3.89155e-05
22 *657:21 *753:9 0.0034445
23 *657:21 *757:9 0.00213282
24 *657:21 *758:25 0.0577044
25 *657:21 *772:17 0.00728733
26 *657:21 *850:13 0
27 *657:21 *858:9 0.00527604
28 *657:21 *866:9 0
29 *657:21 *888:11 0.000274553
30 *657:25 *898:wbs_adr_i[6] 0.00150147
31 *657:25 *658:25 0.0149046
32 *65:21 *657:25 0.0525544
33 *118:75 *657:19 4.21517e-05
34 *647:23 *657:7 0.000123009
35 *650:13 *657:19 0.000111763
36 *651:41 *657:25 0.0226564
37 *652:13 *657:9 0.00704331
38 *652:31 *657:19 0.000495881
39 *656:11 *657:7 8.60631e-05
*RES
1 *892:data_out[9] *657:7 10.4821 
2 *657:7 *657:9 67.0714 
3 *657:9 *657:19 19.7306 
4 *657:19 *657:21 963.054 
5 *657:21 *657:23 3.41 
6 *657:23 *657:25 84.0767 
7 *657:25 *897:adc_data[9] 7.7225 
*END

*D_NET *658 0.265818
*CONN
*I *897:adc_eof I *D soc_sys
*I *892:eof O *D CF_ADC_SAR12
*CAP
1 *897:adc_eof 0.00021727
2 *892:eof 0.00358664
3 *658:25 0.00731771
4 *658:23 0.00710044
5 *658:21 0.039789
6 *658:19 0.0433757
7 *658:19 *892:hiz 0
8 *658:19 *892:sample_width[0] 0.00960178
9 *658:19 *672:19 9.06546e-05
10 *658:19 *672:21 0.00199371
11 *658:19 *725:13 0.00954212
12 *658:21 *697:9 0.0701237
13 *658:21 *709:9 0.00242289
14 *658:21 *719:9 0
15 *658:21 *740:11 0.0023398
16 *658:21 *781:17 0.000144792
17 *658:21 *824:21 0
18 *658:21 *888:11 0
19 *658:25 *898:wbs_adr_i[6] 0.000762127
20 *541:27 *658:25 0.0297742
21 *649:7 *658:19 0.00010293
22 *651:13 *658:21 0.0186476
23 *651:21 *658:21 0.00335812
24 *651:41 *658:25 0.00062205
25 *652:33 *658:21 0
26 *657:25 *658:25 0.0149046
*RES
1 *892:eof *658:19 34.2542 
2 *658:19 *658:21 169.115 
3 *658:21 *658:23 3.41 
4 *658:23 *658:25 47.647 
5 *658:25 *897:adc_eof 6.50821 
*END

*D_NET *659 0.280654
*CONN
*I *893:IREF_VCMBUF I *D CF_ADC_SAR12_sar_refs
*I *893:IREF_VREFBUF I *D CF_ADC_SAR12_sar_refs
*I *892:ibias2p5u_1 I *D CF_ADC_SAR12
*I *892:ibias2p5u I *D CF_ADC_SAR12
*I *895:ibias I *D CF_BUF_HIZ
*I *894:ibg_2p375uA O *D CF_BGR
*CAP
1 *893:IREF_VCMBUF 0.000255271
2 *893:IREF_VREFBUF 0.00755573
3 *892:ibias2p5u_1 0.00012691
4 *892:ibias2p5u 0.000823869
5 *895:ibias 0.0597383
6 *894:ibg_2p375uA 0.00320842
7 *659:67 0.0225353
8 *659:65 0.0393236
9 *659:39 0.079653
10 *659:15 0.0334306
11 *659:13 0.0317679
12 *893:IREF_VREFBUF *661:11 1.13949e-05
13 *659:13 *660:12 0
14 *659:13 *664:11 2.26837e-05
15 *659:39 *892:vinp 0.00013955
16 *892:vreflo *659:39 0.000918389
17 *892:vinm *659:39 0.00104674
18 *14:13 *893:IREF_VREFBUF 9.60363e-05
*RES
1 *894:ibg_2p375uA *659:13 22.6352 
2 *659:13 *659:15 90.7069 
3 *659:15 *895:ibias 22.6314 
4 *895:ibias *659:39 25.4035 
5 *659:39 *892:ibias2p5u 5.65277 
6 *892:ibias2p5u *892:ibias2p5u_1 0.426133 
7 *659:39 *659:65 6.91719 
8 *659:65 *659:67 48.4131 
9 *659:67 *893:IREF_VREFBUF 38.8209 
10 *893:IREF_VREFBUF *893:IREF_VCMBUF 0.846783 
*END

*D_NET *660 0.0819205
*CONN
*I *896:nbias I *D CF_REFBUF
*I *894:ibg_3uA O *D CF_BGR
*CAP
1 *896:nbias 9.28534e-05
2 *894:ibg_3uA 0.0118857
3 *660:18 0.0271298
4 *660:16 0.0286703
5 *660:12 0.0135192
6 *660:12 *664:11 0.000622591
7 *659:13 *660:12 0
*RES
1 *894:ibg_3uA *660:12 42.3113 
2 *660:12 *660:16 36.9279 
3 *660:16 *660:18 77.7349 
4 *660:18 *896:nbias 9.48143 
*END

*D_NET *661 0.183107
*CONN
*I *892:refby2 I *D CF_ADC_SAR12
*I *893:REFBY2 O *D CF_ADC_SAR12_sar_refs
*CAP
1 *892:refby2 0.0711135
2 *893:REFBY2 0.000232714
3 *661:15 0.088041
4 *661:11 0.0171602
5 *892:refby2 *662:19 0.00653968
6 *892:refby2 *722:17 0
7 *893:IREF_VREFBUF *661:11 1.13949e-05
8 *654:23 *892:refby2 8.33331e-06
*RES
1 *893:REFBY2 *661:11 4.1855 
2 *661:11 *661:15 47.0886 
3 *661:15 *892:refby2 47.7201 
*END

*D_NET *662 0.097514
*CONN
*I *892:vrefhi I *D CF_ADC_SAR12
*I *893:REFHI O *D CF_ADC_SAR12_sar_refs
*CAP
1 *892:vrefhi 0.000201563
2 *893:REFHI 0.00154669
3 *662:19 0.0276861
4 *662:17 0.0437389
5 *662:13 0.017801
6 *892:refby2 *662:19 0.00653968
7 *14:13 *662:13 0
*RES
1 *893:REFHI *662:13 10.88 
2 *662:13 *662:17 49.4794 
3 *662:17 *662:19 79.7527 
4 *662:19 *892:vrefhi 0.6627 
*END

*D_NET *663 0.134897
*CONN
*I *892:vinp I *D CF_ADC_SAR12
*I *895:vout O *D CF_BUF_HIZ
*CAP
1 *892:vinp 0.00709377
2 *895:vout 0.0513207
3 *663:19 0.0584145
4 *892:vinp *706:17 0.0064583
5 *892:vinp *714:29 0.00942076
6 *892:vreflo *892:vinp 0.00102472
7 *892:vinm *892:vinp 0.00102472
8 *659:39 *892:vinp 0.00013955
*RES
1 *895:vout *663:19 26.9713 
2 *663:19 *892:vinp 46.5701 
*END

*D_NET *664 0.0834868
*CONN
*I *896:ref_1v2 I *D CF_REFBUF
*I *894:Vout O *D CF_BGR
*CAP
1 *896:ref_1v2 8.22064e-05
2 *894:Vout 0.000462022
3 *664:17 0.038612
4 *664:15 0.0385298
5 *664:13 0.00234674
6 *664:11 0.00280877
7 *659:13 *664:11 2.26837e-05
8 *660:12 *664:11 0.000622591
*RES
1 *894:Vout *664:11 9.28474 
2 *664:11 *664:13 48.0893 
3 *664:13 *664:15 3.41 
4 *664:15 *664:17 111.246 
5 *664:17 *896:ref_1v2 5.02607 
*END

*D_NET *665 0.274985
*CONN
*I *895:e_pd I *D CF_BUF_HIZ
*I *897:analog_ctrl[0] O *D soc_sys
*CAP
1 *895:e_pd 0.000137665
2 *897:analog_ctrl[0] 0.000843856
3 *665:17 0.0139236
4 *665:15 0.013786
5 *665:13 0.0271874
6 *665:11 0.0271874
7 *665:9 0.0193902
8 *665:7 0.0202341
9 *895:e_pd *895:en_pd 0
10 *665:7 *699:19 4.97112e-05
11 *665:7 *710:7 0.000495481
12 *665:9 *670:9 0.00138141
13 *665:9 *687:9 0.000125685
14 *665:9 *708:9 0.000116155
15 *665:9 *739:11 0.00057793
16 *665:9 *759:9 0.0222318
17 *665:9 *761:15 0.000355026
18 *665:9 *762:15 0.00200295
19 *665:9 *770:9 0.000262798
20 *665:9 *771:11 0
21 *665:9 *790:9 0.000592302
22 *665:13 *671:21 0.0333683
23 *665:13 *711:19 0.0159249
24 *665:13 *714:27 0.000435288
25 *665:13 *757:21 0.00222552
26 *665:13 *757:29 0.00985332
27 *665:13 *759:19 4.8817e-05
28 *665:13 *759:31 0.000908037
29 *665:13 *760:21 0.00412776
30 *665:13 *760:29 0.0010869
31 *665:13 *771:15 0.00609246
32 *40:21 *665:9 0.000253431
33 *67:255 *665:7 0.000198829
34 *78:21 *665:13 0.0165925
35 *116:23 *665:17 0.0306679
36 *119:18 *895:e_pd 7.76075e-06
37 *647:25 *665:9 0.00231165
*RES
1 *897:analog_ctrl[0] *665:7 6.60443 
2 *665:7 *665:9 63.7539 
3 *665:9 *665:11 3.41 
4 *665:11 *665:13 142.451 
5 *665:13 *665:15 3.41 
6 *665:15 *665:17 64.4997 
7 *665:17 *895:e_pd 12.8316 
*END

*D_NET *670 0.181993
*CONN
*I *896:pd I *D CF_REFBUF
*I *897:analog_ctrl[104] O *D soc_sys
*CAP
1 *896:pd 7.39953e-05
2 *897:analog_ctrl[104] 0.00129748
3 *670:13 0.0195848
4 *670:11 0.0195108
5 *670:9 0.0379074
6 *670:7 0.0392049
7 *670:7 *671:7 0.000947806
8 *670:9 *676:17 0
9 *670:9 *687:9 0.000138734
10 *670:9 *708:9 1.32704e-05
11 *670:9 *723:9 0
12 *670:9 *745:9 0
13 *670:9 *759:19 1.90936e-05
14 *670:9 *770:9 0.0021775
15 *670:9 *779:9 0
16 *670:9 *782:13 0
17 *647:25 *670:9 0.0597357
18 *665:9 *670:9 0.00138141
*RES
1 *897:analog_ctrl[104] *670:7 6.64047 
2 *670:7 *670:9 1043.8 
3 *670:9 *670:11 3.41 
4 *670:11 *670:13 59.7182 
5 *670:13 *896:pd 9.07071 
*END

*D_NET *671 0.234801
*CONN
*I *896:switchon I *D CF_REFBUF
*I *897:analog_ctrl[105] O *D soc_sys
*CAP
1 *896:switchon 0.000105947
2 *897:analog_ctrl[105] 0.00116949
3 *671:25 0.0523467
4 *671:23 0.0522407
5 *671:21 0.00597853
6 *671:19 0.00654287
7 *671:9 0.00448744
8 *671:7 0.00509259
9 *671:7 *672:7 0.00104199
10 *671:9 *723:9 0.0187356
11 *671:9 *739:11 0.000707272
12 *671:9 *770:17 0.0125461
13 *671:9 *791:9 0.00567269
14 *671:9 *808:9 0.000263484
15 *671:19 *711:19 0.00112379
16 *671:19 *718:15 0.000321723
17 *671:19 *748:9 0.000145236
18 *671:21 *702:23 0.000328104
19 *671:21 *714:27 0.0113043
20 *671:21 *759:21 0.00206388
21 *671:21 *760:29 0.0122766
22 *671:21 *771:15 0.00599009
23 *671:25 *672:41 0
24 *896:ch2 *896:switchon 0
25 *665:13 *671:21 0.0333683
26 *670:7 *671:7 0.000947806
*RES
1 *897:analog_ctrl[105] *671:7 7.0008 
2 *671:7 *671:9 234.482 
3 *671:9 *671:19 14.0251 
4 *671:19 *671:21 52.2593 
5 *671:21 *671:23 3.41 
6 *671:23 *671:25 161.019 
7 *671:25 *896:switchon 7.11923 
*END

*D_NET *672 0.249471
*CONN
*I *896:boost I *D CF_REFBUF
*I *897:analog_ctrl[106] O *D soc_sys
*CAP
1 *896:boost 3.93512e-05
2 *897:analog_ctrl[106] 0.001556
3 *672:41 0.0228766
4 *672:39 0.0228373
5 *672:37 0.00299064
6 *672:21 0.00813921
7 *672:19 0.00519891
8 *672:9 0.0275606
9 *672:7 0.0290662
10 *672:7 *673:9 0.000537263
11 *672:7 *674:7 0.000331787
12 *672:9 *681:9 0.000551344
13 *672:9 *711:9 0.00135929
14 *672:9 *736:9 0.0117689
15 *672:9 *747:9 0.000888483
16 *672:9 *762:17 0.0589892
17 *672:9 *790:9 0
18 *672:19 *892:sample_width[0] 9.31015e-05
19 *672:19 *673:17 2.06725e-05
20 *672:21 *892:sample_width[0] 0.000169876
21 *672:21 *695:23 0.000921912
22 *672:21 *723:13 6.11842e-05
23 *672:21 *775:21 0.014916
24 *672:37 *694:21 0.0030467
25 *672:37 *695:23 0.0030434
26 *672:37 *719:21 0.0142886
27 *672:37 *723:23 0.0142886
28 *672:37 *728:35 7.16674e-05
29 *672:37 *728:55 8.12154e-05
30 *672:37 *775:21 0.000650365
31 *650:13 *672:21 0
32 *652:33 *672:9 0
33 *658:19 *672:19 9.06546e-05
34 *658:19 *672:21 0.00199371
35 *671:7 *672:7 0.00104199
36 *671:25 *672:41 0
*RES
1 *897:analog_ctrl[106] *672:7 7.90163 
2 *672:7 *672:9 130.976 
3 *672:9 *672:19 11.7519 
4 *672:19 *672:21 152.5 
5 *672:21 *672:37 46.8251 
6 *672:37 *672:39 3.41 
7 *672:39 *672:41 71.4243 
8 *672:41 *896:boost 6.90303 
*END

*D_NET *673 0.218646
*CONN
*I *896:ch_cont I *D CF_REFBUF
*I *897:analog_ctrl[107] O *D soc_sys
*CAP
1 *896:ch_cont 1.7254e-05
2 *897:analog_ctrl[107] 0.0021521
3 *673:21 0.0198814
4 *673:19 0.0198641
5 *673:17 0.0404045
6 *673:15 0.041387
7 *673:9 0.00313468
8 *673:9 *674:7 0.000537263
9 *673:9 *763:9 0
10 *673:9 *819:9 0.0033082
11 *673:17 *761:17 0
12 *673:17 *762:17 0.0281186
13 *673:17 *792:9 0.00247609
14 *673:17 *794:9 0.000209369
15 *673:17 *795:9 0
16 *650:17 *673:17 0.000217881
17 *656:25 *673:17 0.0563798
18 *672:7 *673:9 0.000537263
19 *672:19 *673:17 2.06725e-05
*RES
1 *897:analog_ctrl[107] *673:9 47.1373 
2 *673:9 *673:15 23.0893 
3 *673:15 *673:17 1082.21 
4 *673:17 *673:19 3.41 
5 *673:19 *673:21 60.8713 
6 *673:21 *896:ch_cont 8.18679 
*END

*D_NET *674 0.08169
*CONN
*I *893:sw_start I *D CF_ADC_SAR12_sar_refs
*I *897:analog_ctrl[108] O *D soc_sys
*CAP
1 *893:sw_start 0.00843034
2 *897:analog_ctrl[108] 0.00356925
3 *674:9 0.0178592
4 *674:7 0.0129981
5 *893:sw_start *893:pd 0.0034715
6 *893:sw_start *893:pd_ana 0
7 *674:7 *675:7 0.00204796
8 *674:7 *677:7 0.000262225
9 *674:9 *678:9 0.00132986
10 *674:9 *729:9 0.00258586
11 *674:9 *746:9 0.0231948
12 *674:9 *783:17 0
13 *674:9 *890:9 0.00507192
14 *672:7 *674:7 0.000331787
15 *673:9 *674:7 0.000537263
*RES
1 *897:analog_ctrl[108] *674:7 12.6941 
2 *674:7 *674:9 317.661 
3 *674:9 *893:sw_start 37.3097 
*END

*D_NET *675 0.108201
*CONN
*I *893:pd_vcmbuf I *D CF_ADC_SAR12_sar_refs
*I *897:analog_ctrl[109] O *D soc_sys
*CAP
1 *893:pd_vcmbuf 0.00769003
2 *897:analog_ctrl[109] 0.00225238
3 *675:9 0.018771
4 *675:7 0.0133334
5 *893:pd_vcmbuf *893:PWR_CTRL_VREF[1] 2.76434e-05
6 *893:pd_vcmbuf *893:EN_RESVDA 4.01743e-05
7 *893:pd_vcmbuf *893:PWR_CTRL_VREF[0] 0.00132093
8 *893:pd_vcmbuf *893:enable_hv 0.000256492
9 *893:pd_vcmbuf *893:PD_BUF_VREF 0.0166833
10 *893:pd_vcmbuf *694:15 0.000353203
11 *675:7 *677:7 0.00204405
12 *675:9 *686:9 0
13 *675:9 *741:25 0.031248
14 *675:9 *753:9 0
15 *675:9 *781:17 0.00457876
16 *675:9 *868:9 0.00755343
17 *674:7 *675:7 0.00204796
*RES
1 *897:analog_ctrl[109] *675:7 10.46 
2 *675:7 *675:9 388.696 
3 *675:9 *893:pd_vcmbuf 38.5631 
*END

*D_NET *676 0.141108
*CONN
*I *892:reset_n I *D CF_ADC_SAR12
*I *897:analog_ctrl[10] O *D soc_sys
*CAP
1 *892:reset_n 0.00114173
2 *897:analog_ctrl[10] 0.00019295
3 *676:25 0.0264352
4 *676:23 0.0278606
5 *676:17 0.00863543
6 *676:15 0.00660917
7 *676:9 0.00443495
8 *676:7 0.00408701
9 *892:reset_n *892:sel_csel_dft[3] 0
10 *676:7 *687:7 0.000245274
11 *676:7 *754:7 0
12 *676:7 *776:11 1.36077e-05
13 *676:7 *787:9 4.97112e-05
14 *676:9 *699:43 1.94945e-05
15 *676:9 *712:9 0.00512016
16 *676:9 *741:23 2.01732e-05
17 *676:9 *754:9 0
18 *676:9 *789:9 0.0112787
19 *676:15 *897:sram_dat_i[2] 0.00129287
20 *676:15 *881:7 0.00129049
21 *676:17 *770:9 0.00165775
22 *676:17 *771:11 0.000949235
23 *676:17 *779:9 0.0154719
24 *676:23 *718:15 0.00306301
25 *676:23 *735:15 0.00934355
26 *897:wbs_adr_i[30] *676:23 9.5164e-05
27 *897:wbs_adr_i[31] *676:23 4.98422e-05
28 *897:wbs_dat_i[30] *676:23 0.000944536
29 *897:wbs_dat_i[31] *676:23 0.000675432
30 *67:239 *676:9 0.000715167
31 *104:26 *676:9 0.000101288
32 *566:15 *676:25 4.95909e-06
33 *631:8 *676:23 0.000689957
34 *632:16 *676:23 0.000867992
35 *648:35 *676:9 2.05695e-05
36 *653:10 *676:25 0.00403972
37 *654:21 *892:reset_n 0
38 *655:27 *676:25 0.00369069
39 *670:9 *676:17 0
*RES
1 *897:analog_ctrl[10] *676:7 4.11813 
2 *676:7 *676:9 153.732 
3 *676:9 *676:15 9.029 
4 *676:15 *676:17 193.196 
5 *676:17 *676:23 21.965 
6 *676:23 *676:25 85.3802 
7 *676:25 *892:reset_n 18.8648 
*END

*D_NET *677 0.109222
*CONN
*I *893:S_LV[0] I *D CF_ADC_SAR12_sar_refs
*I *897:analog_ctrl[110] O *D soc_sys
*CAP
1 *893:S_LV[0] 0.00592167
2 *897:analog_ctrl[110] 0.00402906
3 *677:9 0.012095
4 *677:7 0.0102024
5 *893:S_LV[0] *893:S_LV[1] 0.0171773
6 *677:7 *678:7 0.00265117
7 *677:7 *679:7 0.000115727
8 *677:7 *680:7 0
9 *677:7 *682:7 0
10 *677:9 *682:9 0.00156889
11 *677:9 *689:9 0.0279886
12 *677:9 *713:9 0
13 *677:9 *744:9 0.0230754
14 *677:9 *818:9 0.000601744
15 *893:vssa *893:S_LV[0] 0.00148859
16 *674:7 *677:7 0.000262225
17 *675:7 *677:7 0.00204405
*RES
1 *897:analog_ctrl[110] *677:7 14.784 
2 *677:7 *677:9 359.554 
3 *677:9 *893:S_LV[0] 34.149 
*END

*D_NET *678 0.108302
*CONN
*I *893:S_LV[1] I *D CF_ADC_SAR12_sar_refs
*I *897:analog_ctrl[111] O *D soc_sys
*CAP
1 *893:S_LV[1] 0.00331618
2 *897:analog_ctrl[111] 0.00291089
3 *678:9 0.0158486
4 *678:7 0.0154433
5 *893:S_LV[1] *893:S_LV[4] 0.000221771
6 *893:S_LV[1] *893:S_LV[2] 0.0179057
7 *678:7 *679:7 0.00265117
8 *678:9 *729:9 0.00395573
9 *678:9 *746:9 0.0229049
10 *678:9 *781:9 0.000709692
11 *678:9 *783:17 0
12 *678:9 *784:9 0
13 *893:vssa *893:S_LV[1] 0.00127604
14 *893:S_LV[0] *893:S_LV[1] 0.0171773
15 *674:9 *678:9 0.00132986
16 *677:7 *678:7 0.00265117
*RES
1 *897:analog_ctrl[111] *678:7 12.5499 
2 *678:7 *678:9 357.732 
3 *678:9 *893:S_LV[1] 36.3831 
*END

*D_NET *679 0.102972
*CONN
*I *893:S_LV[2] I *D CF_ADC_SAR12_sar_refs
*I *897:analog_ctrl[112] O *D soc_sys
*CAP
1 *893:S_LV[2] 0.00282202
2 *897:analog_ctrl[112] 0.00334867
3 *679:9 0.012081
4 *679:7 0.0126077
5 *893:S_LV[2] *893:S_LV[4] 4.97144e-05
6 *893:S_LV[2] *893:S_LV[3] 0.0178119
7 *679:7 *680:7 0.00294131
8 *679:9 *680:9 0.0130525
9 *679:9 *694:9 0
10 *679:9 *702:9 0.00400614
11 *679:9 *702:13 0.00413123
12 *679:9 *710:9 0.00113145
13 *679:9 *738:9 0.00205198
14 *679:9 *860:9 0.00498729
15 *893:vssa *893:S_LV[2] 0.00127604
16 *893:S_LV[1] *893:S_LV[2] 0.0179057
17 *677:7 *679:7 0.000115727
18 *678:7 *679:7 0.00265117
*RES
1 *897:analog_ctrl[112] *679:7 13.6309 
2 *679:7 *679:9 355.911 
3 *679:9 *893:S_LV[2] 35.3021 
*END

*D_NET *680 0.102885
*CONN
*I *893:S_LV[3] I *D CF_ADC_SAR12_sar_refs
*I *897:analog_ctrl[113] O *D soc_sys
*CAP
1 *893:S_LV[3] 0.00280474
2 *897:analog_ctrl[113] 0.00356996
3 *680:9 0.0139547
4 *680:7 0.0147199
5 *893:S_LV[3] *893:S_LV[4] 0.0178119
6 *680:7 *681:7 0.00142872
7 *680:7 *682:7 0.000626834
8 *680:9 *710:9 0.00113145
9 *680:9 *714:9 0
10 *680:9 *738:9 0.00147845
11 *680:9 *825:21 0.00538507
12 *680:9 *860:9 0.00489112
13 *893:vssa *893:S_LV[3] 0.00127604
14 *893:S_LV[2] *893:S_LV[3] 0.0178119
15 *677:7 *680:7 0
16 *679:7 *680:7 0.00294131
17 *679:9 *680:9 0.0130525
*RES
1 *897:analog_ctrl[113] *680:7 13.7751 
2 *680:7 *680:9 354.089 
3 *680:9 *893:S_LV[3] 35.1579 
*END

*D_NET *681 0.117089
*CONN
*I *893:S_LV[4] I *D CF_ADC_SAR12_sar_refs
*I *897:analog_ctrl[114] O *D soc_sys
*CAP
1 *893:S_LV[4] 0.00428098
2 *897:analog_ctrl[114] 0.0015273
3 *681:9 0.0103279
4 *681:7 0.00757422
5 *893:S_LV[4] *893:S_LV[7] 0.0211014
6 *681:7 *682:7 0.00142872
7 *681:9 *684:9 0.0115775
8 *681:9 *736:9 0.00224984
9 *681:9 *747:9 0.0283558
10 *681:9 *869:9 0.00732545
11 *893:vssa *893:S_LV[4] 0.00127604
12 *893:S_LV[3] *893:S_LV[4] 0.0178119
13 *893:S_LV[2] *893:S_LV[4] 4.97144e-05
14 *893:S_LV[1] *893:S_LV[4] 0.000221771
15 *649:13 *681:9 0
16 *672:9 *681:9 0.000551344
17 *680:7 *681:7 0.00142872
*RES
1 *897:analog_ctrl[114] *681:7 8.298 
2 *681:7 *681:9 352.268 
3 *681:9 *893:S_LV[4] 40.635 
*END

*D_NET *682 0.0786627
*CONN
*I *893:S_LV[5] I *D CF_ADC_SAR12_sar_refs
*I *897:analog_ctrl[115] O *D soc_sys
*CAP
1 *893:S_LV[5] 0.00949115
2 *897:analog_ctrl[115] 0.00406049
3 *682:9 0.0207186
4 *682:7 0.0152879
5 *893:S_LV[5] *893:S_LV[6] 3.50945e-05
6 *893:S_LV[5] *893:dft_comp_en 2.23971e-05
7 *682:7 *683:7 0.00333932
8 *682:9 *713:9 0
9 *682:9 *744:9 0.00794709
10 *682:9 *830:13 0.00659018
11 *682:9 *871:9 0.00754603
12 *677:7 *682:7 0
13 *677:9 *682:9 0.00156889
14 *680:7 *682:7 0.000626834
15 *681:7 *682:7 0.00142872
*RES
1 *897:analog_ctrl[115] *682:7 15.0002 
2 *682:7 *682:9 340.732 
3 *682:9 *893:S_LV[5] 42.7402 
*END

*D_NET *683 0.0735348
*CONN
*I *893:S_LV[6] I *D CF_ADC_SAR12_sar_refs
*I *897:analog_ctrl[116] O *D soc_sys
*CAP
1 *893:S_LV[6] 0.00617834
2 *897:analog_ctrl[116] 0.00559232
3 *683:9 0.0231024
4 *683:7 0.0225164
5 *893:S_LV[6] *893:dft_comp_en 0.00785524
6 *683:7 *684:7 0.00146378
7 *683:7 *685:7 0.000378085
8 *683:7 *689:7 0
9 *683:9 *796:9 0
10 *683:9 *820:9 0
11 *683:9 *849:13 0.00307386
12 *683:9 *864:9 0
13 *683:9 *875:11 0
14 *893:S_LV[5] *893:S_LV[6] 3.50945e-05
15 *682:7 *683:7 0.00333932
*RES
1 *897:analog_ctrl[116] *683:7 17.9549 
2 *683:7 *683:9 347.411 
3 *683:9 *893:S_LV[6] 30.9781 
*END

*D_NET *684 0.102833
*CONN
*I *893:S_LV[7] I *D CF_ADC_SAR12_sar_refs
*I *897:analog_ctrl[117] O *D soc_sys
*CAP
1 *893:S_LV[7] 0.00461601
2 *897:analog_ctrl[117] 0.00159149
3 *684:9 0.0126503
4 *684:7 0.00962578
5 *893:S_LV[7] *893:dft_comp_en 0.0164798
6 *684:7 *685:7 0.00146378
7 *684:9 *688:9 0.00651794
8 *684:9 *736:9 0.00182696
9 *684:9 *829:21 0.00607683
10 *684:9 *869:9 0.00703694
11 *893:S_LV[4] *893:S_LV[7] 0.0211014
12 *649:13 *684:9 0
13 *652:33 *684:9 0.000804938
14 *681:9 *684:9 0.0115775
15 *683:7 *684:7 0.00146378
*RES
1 *897:analog_ctrl[117] *684:7 8.44213 
2 *684:7 *684:9 348.018 
3 *684:9 *893:S_LV[7] 40.4909 
*END

*D_NET *685 0.0663519
*CONN
*I *893:refout_en I *D CF_ADC_SAR12_sar_refs
*I *897:analog_ctrl[118] O *D soc_sys
*CAP
1 *893:refout_en 0.0105408
2 *897:analog_ctrl[118] 0.00286423
3 *685:9 0.020901
4 *685:7 0.0132245
5 *893:refout_en *893:hiz 0
6 *893:refout_en *893:sw_holdb 0
7 *685:7 *686:7 0.00212994
8 *685:7 *689:7 0
9 *685:9 *692:9 0.00671509
10 *685:9 *827:21 0.00544533
11 *685:9 *857:9 0.00232861
12 *685:9 *866:9 0.000360635
13 *42:13 *685:9 0
14 *683:7 *685:7 0.000378085
15 *684:7 *685:7 0.00146378
*RES
1 *897:analog_ctrl[118] *685:7 11.6851 
2 *685:7 *685:9 296.411 
3 *685:9 *893:refout_en 38.3187 
*END

*D_NET *686 0.0711268
*CONN
*I *893:sw_holdb I *D CF_ADC_SAR12_sar_refs
*I *897:analog_ctrl[119] O *D soc_sys
*CAP
1 *893:sw_holdb 0.00818657
2 *897:analog_ctrl[119] 0.0024206
3 *686:9 0.0177946
4 *686:7 0.0120286
5 *893:sw_holdb *893:enpdb_hv 0.00886735
6 *686:7 *688:7 0.00152604
7 *686:7 *689:7 0.000243084
8 *686:9 *753:9 0.00763541
9 *686:9 *757:19 2.13884e-05
10 *686:9 *772:17 0.00273557
11 *686:9 *823:17 0.000575861
12 *686:9 *850:13 0.0029968
13 *686:9 *868:9 0.00087196
14 *686:9 *887:9 0.00309297
15 *893:refout_en *893:sw_holdb 0
16 *675:9 *686:9 0
17 *685:7 *686:7 0.00212994
*RES
1 *897:analog_ctrl[119] *686:7 10.7483 
2 *686:7 *686:9 290.339 
3 *686:9 *893:sw_holdb 39.7596 
*END

*D_NET *687 0.19437
*CONN
*I *892:sof I *D CF_ADC_SAR12
*I *897:analog_ctrl[11] O *D soc_sys
*CAP
1 *892:sof 0.00204368
2 *897:analog_ctrl[11] 0.000877911
3 *687:9 0.0147132
4 *687:7 0.0135474
5 *892:sof *892:sample_width[1] 0.00655418
6 *892:sof *892:test_sea 0.0076677
7 *892:sof *892:iso_en 4.93125e-05
8 *892:sof *892:next 0.0027429
9 *892:sof *892:dft_outc[1] 0.00168843
10 *892:sof *726:13 1.83409e-05
11 *892:sof *776:35 0.00474837
12 *687:7 *691:7 0.00115254
13 *687:7 *754:7 0
14 *687:9 *708:9 0.0674244
15 *687:9 *759:9 0.00184551
16 *687:9 *791:9 0
17 *647:25 *687:9 0.0687865
18 *665:9 *687:9 0.000125685
19 *670:9 *687:9 0.000138734
20 *676:7 *687:7 0.000245274
*RES
1 *897:analog_ctrl[11] *687:7 6.7846 
2 *687:7 *687:9 854.982 
3 *687:9 *892:sof 32.7453 
*END

*D_NET *688 0.0738291
*CONN
*I *893:enpdb_hv I *D CF_ADC_SAR12_sar_refs
*I *897:analog_ctrl[120] O *D soc_sys
*CAP
1 *893:enpdb_hv 0.00904031
2 *897:analog_ctrl[120] 0.00165578
3 *688:9 0.0154036
4 *688:7 0.00801907
5 *688:7 *689:7 0.00153098
6 *688:9 *817:9 0.00279504
7 *688:9 *829:21 0.00138407
8 *688:9 *851:13 0.00317893
9 *893:sw_holdb *893:enpdb_hv 0.00886735
10 *649:13 *688:9 0.0111039
11 *652:33 *688:9 0.00280611
12 *684:9 *688:9 0.00651794
13 *686:7 *688:7 0.00152604
*RES
1 *897:analog_ctrl[120] *688:7 8.65833 
2 *688:7 *688:9 287.911 
3 *688:9 *893:enpdb_hv 41.8496 
*END

*D_NET *689 0.10818
*CONN
*I *893:PD_BUF_VREF I *D CF_ADC_SAR12_sar_refs
*I *897:analog_ctrl[121] O *D soc_sys
*CAP
1 *893:PD_BUF_VREF 0.00321948
2 *897:analog_ctrl[121] 0.00419344
3 *689:9 0.0151087
4 *689:7 0.0160827
5 *893:PD_BUF_VREF *893:PWR_CTRL_VREF[1] 0.00010449
6 *893:PD_BUF_VREF *893:EN_RESVDA 0.000208001
7 *893:PD_BUF_VREF *893:PWR_CTRL_VREF[0] 0.016681
8 *689:7 *690:7 0.00308899
9 *689:9 *713:9 0
10 *689:9 *714:9 0
11 *689:9 *818:9 0.0030474
12 *893:pd_vcmbuf *893:PD_BUF_VREF 0.0166833
13 *677:9 *689:9 0.0279886
14 *683:7 *689:7 0
15 *685:7 *689:7 0
16 *686:7 *689:7 0.000243084
17 *688:7 *689:7 0.00153098
*RES
1 *897:analog_ctrl[121] *689:7 14.7119 
2 *689:7 *689:9 373.518 
3 *689:9 *893:PD_BUF_VREF 35.8078 
*END

*D_NET *690 0.0939751
*CONN
*I *893:dft_comp_en I *D CF_ADC_SAR12_sar_refs
*I *897:analog_ctrl[122] O *D soc_sys
*CAP
1 *893:dft_comp_en 0.00358505
2 *897:analog_ctrl[122] 0.00486195
3 *690:9 0.0163362
4 *690:7 0.0176131
5 *690:7 *897:sram_ack_i 0.00127492
6 *690:7 *821:7 0.000634519
7 *690:9 *713:9 0
8 *690:9 *725:9 0.00489514
9 *690:9 *802:9 0.000509831
10 *690:9 *807:9 0.000393641
11 *690:9 *837:13 0.00775287
12 *690:9 *867:9 0.00611329
13 *893:S_LV[7] *893:dft_comp_en 0.0164798
14 *893:S_LV[6] *893:dft_comp_en 0.00785524
15 *893:S_LV[5] *893:dft_comp_en 2.23971e-05
16 *67:217 *690:9 0.00255822
17 *689:7 *690:7 0.00308899
*RES
1 *897:analog_ctrl[122] *690:7 15.9371 
2 *690:7 *690:9 341.339 
3 *690:9 *893:dft_comp_en 32.9959 
*END

*D_NET *691 0.151999
*CONN
*I *892:next I *D CF_ADC_SAR12
*I *897:analog_ctrl[12] O *D soc_sys
*CAP
1 *892:next 0.0022216
2 *897:analog_ctrl[12] 0.00165486
3 *691:9 0.0252705
4 *691:7 0.0247038
5 *892:next *892:sample_width[5] 0.00883173
6 *892:next *892:test_sea 0.00274002
7 *892:next *892:iso_en 0.000185935
8 *892:next *892:dft_outc[1] 0.000347927
9 *892:next *726:13 0.00882548
10 *691:7 *692:7 0.00227888
11 *691:9 *697:9 0.0124855
12 *691:9 *709:9 0.00121605
13 *691:9 *735:9 0.0237239
14 *691:9 *741:25 0.0105253
15 *691:9 *848:23 0.00698906
16 *691:9 *891:9 0
17 *892:sof *892:next 0.0027429
18 *651:13 *691:9 0.0161025
19 *687:7 *691:7 0.00115254
*RES
1 *897:analog_ctrl[12] *691:7 10.1717 
2 *691:7 *691:9 855.589 
3 *691:9 *892:next 34.4648 
*END

*D_NET *692 0.195916
*CONN
*I *893:hiz I *D CF_ADC_SAR12_sar_refs
*I *892:hiz I *D CF_ADC_SAR12
*I *897:analog_ctrl[13] O *D soc_sys
*CAP
1 *893:hiz 0.00759111
2 *892:hiz 0.002174
3 *897:analog_ctrl[13] 0.00179572
4 *692:17 0.0166409
5 *692:15 0.0170697
6 *692:11 0.0101939
7 *692:9 0.00779918
8 *692:7 0.00959491
9 *892:hiz *892:sample_width[1] 1.42811e-05
10 *892:hiz *892:sample_width[5] 0.000168182
11 *892:hiz *892:test_sea 0
12 *892:hiz *892:iso_en 0.00282404
13 *892:hiz *694:21 0.000866855
14 *892:hiz *695:13 0.00081294
15 *892:hiz *696:13 0.000753895
16 *892:hiz *697:27 3.0591e-05
17 *892:hiz *719:21 0.00241938
18 *892:hiz *723:23 9.01724e-06
19 *892:hiz *724:37 0.00143612
20 *892:hiz *728:35 0.00825992
21 *893:hiz *893:pd 0.000118283
22 *893:hiz *893:pd_ana 0.0106348
23 *692:7 *693:7 0.00183504
24 *692:7 *694:7 0.000401649
25 *692:9 *696:9 0
26 *692:9 *704:9 0.000356161
27 *692:9 *715:9 0.000643958
28 *692:9 *728:9 0.0312978
29 *692:9 *737:9 0.00112719
30 *692:9 *866:9 0.0164283
31 *692:9 *888:11 0.00145861
32 *692:15 *893:pd_ana 0.00284869
33 *692:15 *787:21 6.4194e-05
34 *692:17 *694:17 0.0158376
35 *692:17 *773:42 0.00914638
36 *692:17 *777:9 0.00248245
37 *692:17 *787:11 5.51718e-05
38 *893:refout_en *893:hiz 0
39 *42:13 *692:9 0
40 *649:9 *892:hiz 0.000905969
41 *651:9 *892:hiz 0.000824782
42 *657:21 *692:9 0
43 *658:19 *892:hiz 0
44 *685:9 *692:9 0.00671509
45 *691:7 *692:7 0.00227888
*RES
1 *897:analog_ctrl[13] *692:7 11.4689 
2 *692:7 *692:9 428.161 
3 *692:9 *692:11 3.41 
4 *692:11 *692:15 12.105 
5 *692:15 *692:17 428.768 
6 *692:17 *892:hiz 28.1231 
7 *692:11 *893:hiz 34.9552 
*END

*D_NET *693 0.203949
*CONN
*I *892:iso_en I *D CF_ADC_SAR12
*I *897:analog_ctrl[14] O *D soc_sys
*CAP
1 *892:iso_en 0.00260462
2 *897:analog_ctrl[14] 0.00109381
3 *693:9 0.0153295
4 *693:7 0.0138187
5 *892:iso_en *892:sample_width[5] 0.00282404
6 *892:iso_en *892:test_sea 0.000280816
7 *892:iso_en *892:dft_outc[1] 0.00122849
8 *892:iso_en *724:35 0.00016334
9 *892:iso_en *776:35 0.00433255
10 *693:7 *694:7 0.00183112
11 *693:9 *701:9 0
12 *693:9 *731:9 0.0650967
13 *693:9 *840:21 0
14 *892:hiz *892:iso_en 0.00282404
15 *892:sof *892:iso_en 4.93125e-05
16 *892:next *892:iso_en 0.000185935
17 *648:19 *892:iso_en 0.0080217
18 *648:21 *693:9 7.29243e-05
19 *649:13 *693:9 0.0686817
20 *652:33 *693:9 0.0121271
21 *656:23 *892:iso_en 0.00154797
22 *657:7 *892:iso_en 0
23 *692:7 *693:7 0.00183504
*RES
1 *897:analog_ctrl[14] *693:7 8.87453 
2 *693:7 *693:9 848.911 
3 *693:9 *892:iso_en 39.8125 
*END

*D_NET *694 0.279004
*CONN
*I *893:enable_hv I *D CF_ADC_SAR12_sar_refs
*I *892:enable_hv I *D CF_ADC_SAR12
*I *897:analog_ctrl[15] O *D soc_sys
*CAP
1 *893:enable_hv 0.0101154
2 *892:enable_hv 0.000172429
3 *897:analog_ctrl[15] 0.00243565
4 *694:21 0.00670421
5 *694:19 0.00653178
6 *694:17 0.00547223
7 *694:15 0.00952687
8 *694:11 0.0141701
9 *694:9 0.0109345
10 *694:7 0.0133701
11 *892:enable_hv *892:trimunit 0.000436824
12 *892:enable_hv *892:cap_trim[1] 3.63422e-05
13 *892:enable_hv *892:cap_trim[0] 9.40348e-05
14 *694:7 *695:7 0.00290008
15 *694:9 *702:9 0.0199366
16 *694:9 *702:13 0.00411395
17 *694:9 *710:9 0.00655162
18 *694:9 *720:9 0.038499
19 *694:9 *760:19 1.94879e-05
20 *694:9 *844:17 0
21 *694:9 *860:9 0
22 *694:15 *893:EN_RESVDA 0
23 *694:15 *893:PWR_CTRL_VREF[0] 0
24 *694:17 *773:42 0.00611131
25 *694:17 *777:9 0.0284852
26 *694:21 *892:sample_width[0] 0.0131443
27 *694:21 *892:icont_lv[1] 0.000252553
28 *694:21 *892:dft_outc[0] 0.00388522
29 *694:21 *695:23 0.00347885
30 *694:21 *696:23 1.17103e-05
31 *694:21 *719:21 0.0308648
32 *694:21 *723:13 0.000359738
33 *694:21 *728:35 2.5212e-05
34 *694:21 *728:55 0.014301
35 *892:hiz *694:21 0.000866855
36 *893:pd_vcmbuf *893:enable_hv 0.000256492
37 *893:pd_vcmbuf *694:15 0.000353203
38 *650:13 *694:21 0.000386145
39 *652:13 *694:21 0.00147958
40 *657:9 *694:21 0.00160388
41 *672:37 *694:21 0.0030467
42 *679:9 *694:9 0
43 *692:7 *694:7 0.000401649
44 *692:17 *694:17 0.0158376
45 *693:7 *694:7 0.00183112
*RES
1 *897:analog_ctrl[15] *694:7 13.3427 
2 *694:7 *694:9 505.268 
3 *694:9 *694:11 3.41 
4 *694:11 *694:15 13.8346 
5 *694:15 *694:17 350.446 
6 *694:17 *694:19 3.41 
7 *694:19 *694:21 58.7813 
8 *694:21 *892:enable_hv 9.30732 
9 *694:11 *893:enable_hv 32.7005 
*END

*D_NET *695 0.272424
*CONN
*I *892:trimunit I *D CF_ADC_SAR12
*I *897:analog_ctrl[16] O *D soc_sys
*CAP
1 *892:trimunit 0.000291888
2 *897:analog_ctrl[16] 0.00201117
3 *695:23 0.00521758
4 *695:19 0.00510581
5 *695:13 0.00266743
6 *695:11 0.00248732
7 *695:9 0.0141992
8 *695:7 0.0162104
9 *892:trimunit *892:dft_inc[2] 0
10 *892:trimunit *892:dft_inc[1] 0
11 *695:7 *696:7 0.00239683
12 *695:9 *707:9 0.0670606
13 *695:9 *890:9 0
14 *695:13 *696:13 0.0136079
15 *695:13 *720:13 0
16 *695:13 *723:13 0.00010978
17 *695:13 *728:35 0.000882309
18 *695:13 *775:21 0
19 *695:23 *892:sample_width[0] 0.00406539
20 *695:23 *696:23 0.0243842
21 *695:23 *725:13 0.00187178
22 *695:23 *728:55 0.0142803
23 *695:23 *775:21 0.00374792
24 *892:hiz *695:13 0.00081294
25 *892:enable_hv *892:trimunit 0.000436824
26 *42:13 *695:9 0.068128
27 *649:9 *695:13 6.3629e-05
28 *651:9 *695:13 0.0118065
29 *652:31 *695:13 0.000233689
30 *672:21 *695:23 0.000921912
31 *672:37 *695:23 0.0030434
32 *694:7 *695:7 0.00290008
33 *694:21 *695:23 0.00347885
*RES
1 *897:analog_ctrl[16] *695:7 12.1175 
2 *695:7 *695:9 853.009 
3 *695:9 *695:11 4.5 
4 *695:11 *695:13 134.839 
5 *695:13 *695:19 10.6154 
6 *695:19 *695:23 47.6339 
7 *695:23 *892:trimunit 7.11161 
*END

*D_NET *696 0.267329
*CONN
*I *892:dly_inc I *D CF_ADC_SAR12
*I *897:analog_ctrl[17] O *D soc_sys
*CAP
1 *892:dly_inc 0.000323478
2 *897:analog_ctrl[17] 0.00190666
3 *696:23 0.00466457
4 *696:19 0.00458272
5 *696:13 0.00634994
6 *696:11 0.00610831
7 *696:9 0.0119079
8 *696:7 0.0138145
9 *892:dly_inc *892:icont_lv[1] 0.000138064
10 *892:dly_inc *892:dcen 0
11 *696:7 *697:7 0.00205634
12 *696:7 *702:7 0
13 *696:9 *704:9 0.0679609
14 *696:9 *715:9 0.000179434
15 *696:9 *757:9 0.00239475
16 *696:9 *772:17 0.00673473
17 *696:9 *888:11 0.000502741
18 *696:13 *697:21 0
19 *696:13 *720:13 0
20 *696:13 *723:23 0.000838734
21 *696:13 *724:35 0.00010982
22 *696:13 *724:37 0.000679102
23 *696:13 *728:35 0.000818226
24 *696:13 *775:21 0
25 *696:23 *892:icont_lv[1] 0.000209232
26 *696:23 *725:13 0.0241222
27 *696:23 *775:29 0.00057407
28 *892:hiz *696:13 0.000753895
29 *652:31 *696:13 0.000216716
30 *657:21 *696:9 0.0689814
31 *692:9 *696:9 0
32 *694:21 *696:23 1.17103e-05
33 *695:7 *696:7 0.00239683
34 *695:13 *696:13 0.0136079
35 *695:23 *696:23 0.0243842
*RES
1 *897:analog_ctrl[17] *696:7 11.1807 
2 *696:7 *696:9 851.491 
3 *696:9 *696:11 4.5 
4 *696:11 *696:13 161.536 
5 *696:13 *696:19 11.5261 
6 *696:19 *696:23 44.3188 
7 *696:23 *892:dly_inc 7.77679 
*END

*D_NET *697 0.276854
*CONN
*I *892:dcen I *D CF_ADC_SAR12
*I *897:analog_ctrl[18] O *D soc_sys
*CAP
1 *892:dcen 0.00010337
2 *897:analog_ctrl[18] 0.00213245
3 *697:31 0.00416877
4 *697:27 0.00411335
5 *697:21 0.00265481
6 *697:19 0.00272107
7 *697:9 0.0216004
8 *697:7 0.0236187
9 *697:7 *698:11 6.91618e-05
10 *697:7 *701:7 0
11 *697:7 *702:7 0
12 *697:9 *718:9 0.0258263
13 *697:9 *735:9 0.00218806
14 *697:9 *781:17 0.0226335
15 *697:19 *892:test_sea 6.39316e-05
16 *697:19 *726:13 0.000133323
17 *697:21 *892:sample_width[1] 0.00175799
18 *697:21 *720:13 0.00215518
19 *697:21 *724:21 0.0107816
20 *697:21 *726:13 0.000380205
21 *697:31 *892:sample_width[5] 0.0038308
22 *697:31 *892:cap_trim[2] 0.000219507
23 *697:31 *892:cap_trim[1] 1.39702e-05
24 *697:31 *892:cap_trim[0] 0.0225474
25 *697:31 *892:dft_outc[1] 1.51904e-05
26 *697:31 *892:icont_lv[1] 0.000312872
27 *697:31 *724:37 0.00144532
28 *697:31 *726:13 0.0285089
29 *892:hiz *697:27 3.0591e-05
30 *892:dly_inc *892:dcen 0
31 *651:13 *697:19 4.04292e-05
32 *651:21 *697:9 0.000973476
33 *656:13 *697:21 0.00714758
34 *658:21 *697:9 0.0701237
35 *691:9 *697:9 0.0124855
36 *696:7 *697:7 0.00205634
37 *696:13 *697:21 0
*RES
1 *897:analog_ctrl[18] *697:7 10.0636 
2 *697:7 *697:9 148.661 
3 *697:9 *697:19 12.1275 
4 *697:19 *697:21 120.464 
5 *697:21 *697:27 8.79393 
6 *697:27 *697:31 49.94 
7 *697:31 *892:dcen 2.1875 
*END

*D_NET *698 0.246415
*CONN
*I *892:pumpclk I *D CF_ADC_SAR12
*I *897:analog_ctrl[19] O *D soc_sys
*CAP
1 *892:pumpclk 0.000307828
2 *897:analog_ctrl[19] 0.000140723
3 *698:21 0.0187225
4 *698:19 0.0184147
5 *698:17 0.00843398
6 *698:15 0.00843398
7 *698:13 0.0060143
8 *698:11 0.00615502
9 *892:pumpclk *892:en_pump_lv 0.000223703
10 *698:11 *700:9 5.19313e-05
11 *698:11 *700:11 2.46867e-05
12 *698:11 *701:7 1.05319e-05
13 *698:13 *699:43 0.000143652
14 *698:13 *699:47 0.000795537
15 *698:13 *699:49 0.000784972
16 *698:13 *700:11 0.0275234
17 *698:13 *703:11 0.00332019
18 *698:13 *703:13 1.4663e-05
19 *698:13 *705:19 0.0239358
20 *698:17 *727:13 0.0377135
21 *698:17 *743:13 0.0459307
22 *698:21 *700:19 0.0392501
23 *72:13 *698:17 0
24 *112:37 *698:11 0
25 *112:37 *698:13 0
26 *697:7 *698:11 6.91618e-05
*RES
1 *897:analog_ctrl[19] *698:11 6.09581 
2 *698:11 *698:13 345.589 
3 *698:13 *698:15 3.41 
4 *698:15 *698:17 71.7894 
5 *698:17 *698:19 3.41 
6 *698:19 *698:21 84.6345 
7 *698:21 *892:pumpclk 10.2283 
*END

*D_NET *699 0.272548
*CONN
*I *895:en_pd I *D CF_BUF_HIZ
*I *897:analog_ctrl[1] O *D soc_sys
*CAP
1 *895:en_pd 0.05946
2 *897:analog_ctrl[1] 0.000717336
3 *699:49 0.0787489
4 *699:47 0.028355
5 *699:43 0.0150333
6 *699:21 0.0081906
7 *699:19 0.00294071
8 *699:19 *710:7 4.46892e-05
9 *699:19 *776:11 0
10 *699:21 *700:11 0
11 *699:21 *741:9 0.00281129
12 *699:21 *776:13 0.00758272
13 *699:43 *700:11 0.000160692
14 *699:43 *703:13 0.000160692
15 *699:43 *705:19 0.000143652
16 *699:43 *706:9 0.00014854
17 *699:43 *712:9 1.94945e-05
18 *699:43 *722:9 0.000137276
19 *699:43 *758:23 0.000617749
20 *699:43 *772:7 0.000384602
21 *699:43 *775:7 3.80666e-05
22 *699:47 *700:11 0.000735211
23 *699:47 *703:13 0.000769355
24 *699:47 *705:19 0.000860619
25 *699:47 *706:9 0.000769355
26 *699:47 *722:9 0.000868818
27 *699:47 *773:40 0.000353777
28 *699:47 *773:42 0
29 *699:49 *700:11 0.000602284
30 *699:49 *705:19 0.00010283
31 *699:49 *773:42 0.0125075
32 *895:e_pd *895:en_pd 0
33 *112:37 *699:19 0
34 *112:37 *699:21 0
35 *115:24 *895:en_pd 0.0135777
36 *118:57 *699:19 0.000154719
37 *118:57 *699:21 0.00185688
38 *118:57 *699:43 0.00554343
39 *118:57 *699:47 0.00170891
40 *118:75 *699:49 0.00673263
41 *119:18 *895:en_pd 0.017915
42 *648:37 *699:19 0
43 *665:7 *699:19 4.97112e-05
44 *676:9 *699:43 1.94945e-05
45 *698:13 *699:43 0.000143652
46 *698:13 *699:47 0.000795537
47 *698:13 *699:49 0.000784972
*RES
1 *897:analog_ctrl[1] *699:19 25.872 
2 *699:19 *699:21 93.0179 
3 *699:21 *699:43 37.7904 
4 *699:43 *699:47 23.0833 
5 *699:47 *699:49 73.0693 
6 *699:49 *895:en_pd 30.7487 
*END

*D_NET *700 0.215233
*CONN
*I *892:en_pump_lv I *D CF_ADC_SAR12
*I *897:analog_ctrl[20] O *D soc_sys
*CAP
1 *892:en_pump_lv 0.000138804
2 *897:analog_ctrl[20] 6.2423e-05
3 *700:19 0.0158942
4 *700:17 0.0157554
5 *700:15 0.0153979
6 *700:13 0.0153979
7 *700:11 0.00831667
8 *700:9 0.0083791
9 *700:9 *701:7 4.46892e-05
10 *700:11 *705:19 0.000197223
11 *700:11 *722:9 0
12 *700:11 *741:9 0.0013476
13 *700:11 *776:13 0
14 *700:15 *717:15 0
15 *700:15 *733:15 0
16 *700:15 *734:15 0.00949069
17 *700:15 *748:13 0
18 *892:pumpclk *892:en_pump_lv 0.000223703
19 *67:243 *700:11 0.00199124
20 *111:27 *700:15 0
21 *118:75 *700:11 0.0111566
22 *119:22 *700:19 0.00534107
23 *653:14 *700:15 0.0377498
24 *698:11 *700:9 5.19313e-05
25 *698:11 *700:11 2.46867e-05
26 *698:13 *700:11 0.0275234
27 *698:21 *700:19 0.0392501
28 *699:21 *700:11 0
29 *699:43 *700:11 0.000160692
30 *699:47 *700:11 0.000735211
31 *699:49 *700:11 0.000602284
*RES
1 *897:analog_ctrl[20] *700:9 4.07731 
2 *700:9 *700:11 358.339 
3 *700:11 *700:13 3.41 
4 *700:13 *700:15 71.8614 
5 *700:15 *700:17 3.41 
6 *700:17 *700:19 82.6103 
7 *700:19 *892:en_pump_lv 9.31502 
*END

*D_NET *701 0.171608
*CONN
*I *892:scan_test_mode I *D CF_ADC_SAR12
*I *897:analog_ctrl[21] O *D soc_sys
*CAP
1 *892:scan_test_mode 0.00019653
2 *897:analog_ctrl[21] 0.00177097
3 *701:17 0.0188391
4 *701:15 0.0241947
5 *701:9 0.0120606
6 *701:7 0.00827949
7 *892:scan_test_mode *892:test_scanin 0.00038592
8 *701:7 *702:7 0.00192172
9 *701:9 *719:9 0.00242289
10 *701:9 *731:9 0.00148863
11 *701:9 *769:9 0.0212425
12 *701:9 *840:21 0.00330378
13 *701:15 *702:23 0.0138644
14 *701:15 *714:27 0.000213274
15 *701:15 *757:29 4.73891e-05
16 *701:15 *760:29 9.45697e-05
17 *701:15 *771:15 0.000948352
18 *701:17 *702:25 0.0405473
19 *701:17 *703:21 0
20 *701:17 *705:27 0
21 *73:21 *701:15 0
22 *646:10 *701:9 0.0186781
23 *648:21 *701:9 0.00105216
24 *693:9 *701:9 0
25 *697:7 *701:7 0
26 *698:11 *701:7 1.05319e-05
27 *700:9 *701:7 4.46892e-05
*RES
1 *897:analog_ctrl[21] *701:7 9.1628 
2 *701:7 *701:9 340.125 
3 *701:9 *701:15 29.0275 
4 *701:15 *701:17 85.5933 
5 *701:17 *892:scan_test_mode 9.54972 
*END

*D_NET *702 0.18748
*CONN
*I *892:test_scanin I *D CF_ADC_SAR12
*I *897:analog_ctrl[22] O *D soc_sys
*CAP
1 *892:test_scanin 0.000317612
2 *897:analog_ctrl[22] 0.00303456
3 *702:25 0.0115647
4 *702:23 0.0154299
5 *702:13 0.00581893
6 *702:11 0.00166295
7 *702:9 0.00648792
8 *702:7 0.0094956
9 *892:test_scanin *892:test_scanen 8.43771e-05
10 *702:7 *703:11 6.74613e-05
11 *702:7 *704:7 0.00115565
12 *702:7 *707:7 0
13 *702:9 *710:9 0.000651315
14 *702:9 *738:9 0.000259591
15 *702:9 *760:9 0.000707255
16 *702:9 *860:9 0
17 *702:13 *760:9 0.00172718
18 *702:13 *760:19 1.94879e-05
19 *702:23 *714:27 0.0163949
20 *702:23 *760:29 0.00018355
21 *702:23 *771:15 0.00170906
22 *702:25 *714:29 0.0214728
23 *892:scan_test_mode *892:test_scanin 0.00038592
24 *73:21 *702:23 0
25 *671:21 *702:23 0.000328104
26 *679:9 *702:9 0.00400614
27 *679:9 *702:13 0.00413123
28 *694:9 *702:9 0.0199366
29 *694:9 *702:13 0.00411395
30 *696:7 *702:7 0
31 *697:7 *702:7 0
32 *701:7 *702:7 0.00192172
33 *701:15 *702:23 0.0138644
34 *701:17 *702:25 0.0405473
*RES
1 *897:analog_ctrl[22] *702:7 13.4147 
2 *702:7 *702:9 247.554 
3 *702:9 *702:11 0.535714 
4 *702:11 *702:13 90.875 
5 *702:13 *702:23 33.6962 
6 *702:23 *702:25 85.6998 
7 *702:25 *892:test_scanin 10.1868 
*END

*D_NET *703 0.141103
*CONN
*I *892:test_scanen I *D CF_ADC_SAR12
*I *897:analog_ctrl[23] O *D soc_sys
*CAP
1 *892:test_scanen 0.000103857
2 *897:analog_ctrl[23] 0.00090518
3 *703:21 0.0252671
4 *703:19 0.0283767
5 *703:13 0.00844576
6 *703:11 0.00613753
7 *892:test_scanen *892:sel_csel_dft[0] 0
8 *703:11 *704:7 6.74613e-05
9 *703:11 *705:15 0.00309148
10 *703:11 *706:9 1.39961e-05
11 *703:13 *705:19 0.0242675
12 *703:13 *706:9 0.0240615
13 *703:13 *722:9 0.000130158
14 *703:19 *705:25 0.00986695
15 *703:19 *706:15 0.00144034
16 *703:21 *892:sel_csel_dft[0] 6.57893e-06
17 *703:21 *733:17 0.00448333
18 *703:21 *734:17 0
19 *703:21 *735:17 0
20 *892:test_scanin *892:test_scanen 8.43771e-05
21 *72:13 *703:19 2.03842e-05
22 *112:37 *703:11 0
23 *698:13 *703:11 0.00332019
24 *698:13 *703:13 1.4663e-05
25 *699:43 *703:13 0.000160692
26 *699:47 *703:13 0.000769355
27 *701:17 *703:21 0
28 *702:7 *703:11 6.74613e-05
*RES
1 *897:analog_ctrl[23] *703:11 46.1672 
2 *703:11 *703:13 304.911 
3 *703:13 *703:19 22.6856 
4 *703:19 *703:21 83.9953 
5 *703:21 *892:test_scanen 8.78696 
*END

*D_NET *704 0.203134
*CONN
*I *892:test_sea I *D CF_ADC_SAR12
*I *897:analog_ctrl[24] O *D soc_sys
*CAP
1 *892:test_sea 0.00332705
2 *897:analog_ctrl[24] 0.0026093
3 *704:9 0.014907
4 *704:7 0.0141892
5 *892:test_sea *892:sample_width[1] 0.00453562
6 *892:test_sea *892:dft_outc[1] 0.00253438
7 *892:test_sea *726:13 0.00102578
8 *892:test_sea *776:35 0.00234157
9 *704:7 *705:15 8.99426e-05
10 *704:7 *706:7 1.36077e-05
11 *704:7 *707:7 0
12 *704:9 *715:9 0.0669858
13 *704:9 *757:9 0.00161946
14 *704:9 *758:23 0.000232063
15 *704:9 *772:17 0.00476677
16 *704:9 *888:11 0.000815842
17 *892:hiz *892:test_sea 0
18 *892:sof *892:test_sea 0.0076677
19 *892:iso_en *892:test_sea 0.000280816
20 *892:next *892:test_sea 0.00274002
21 *648:19 *892:test_sea 2.02652e-05
22 *656:23 *892:test_sea 0.00282734
23 *692:9 *704:9 0.000356161
24 *696:9 *704:9 0.0679609
25 *697:19 *892:test_sea 6.39316e-05
26 *702:7 *704:7 0.00115565
27 *703:11 *704:7 6.74613e-05
*RES
1 *897:analog_ctrl[24] *704:7 11.2527 
2 *704:7 *704:9 838.589 
3 *704:9 *892:test_sea 29.918 
*END

*D_NET *705 0.170515
*CONN
*I *892:resolution[0] I *D CF_ADC_SAR12
*I *897:analog_ctrl[25] O *D soc_sys
*CAP
1 *892:resolution[0] 9.95949e-05
2 *897:analog_ctrl[25] 0.000913757
3 *705:27 0.0182557
4 *705:25 0.0206257
5 *705:19 0.00770357
6 *705:17 0.00523402
7 *705:15 0.000913757
8 *892:resolution[0] *892:sample_width[6] 2.48858e-05
9 *892:resolution[0] *892:resolution[1] 8.0858e-05
10 *705:15 *706:7 8.60154e-05
11 *705:15 *706:9 0.00299531
12 *705:19 *722:9 1.37595e-05
13 *705:25 *706:15 0
14 *705:27 *706:17 0.0397637
15 *72:13 *705:25 0.0112146
16 *112:37 *705:15 3.38439e-05
17 *698:13 *705:19 0.0239358
18 *699:43 *705:19 0.000143652
19 *699:47 *705:19 0.000860619
20 *699:49 *705:19 0.00010283
21 *700:11 *705:19 0.000197223
22 *701:17 *705:27 0
23 *703:11 *705:15 0.00309148
24 *703:13 *705:19 0.0242675
25 *703:19 *705:25 0.00986695
26 *704:7 *705:15 8.99426e-05
*RES
1 *897:analog_ctrl[25] *705:15 48.8911 
2 *705:15 *705:17 4.5 
3 *705:17 *705:19 305.062 
4 *705:19 *705:25 24.7756 
5 *705:25 *705:27 83.8887 
6 *705:27 *892:resolution[0] 8.78696 
*END

*D_NET *706 0.164593
*CONN
*I *892:resolution[1] I *D CF_ADC_SAR12
*I *897:analog_ctrl[26] O *D soc_sys
*CAP
1 *892:resolution[1] 0.000128407
2 *897:analog_ctrl[26] 7.99245e-05
3 *706:17 0.0157237
4 *706:15 0.0193062
5 *706:9 0.0096642
6 *706:7 0.00603323
7 *892:resolution[1] *892:sample_width[6] 4.98422e-05
8 *706:7 *707:7 0.000112424
9 *706:9 *722:9 0.0257397
10 *706:15 *727:13 0.0112219
11 *706:17 *714:29 0
12 *892:resolution[0] *892:resolution[1] 8.0858e-05
13 *892:vinp *706:17 0.0064583
14 *112:37 *706:9 0.000701692
15 *699:43 *706:9 0.00014854
16 *699:47 *706:9 0.000769355
17 *703:11 *706:9 1.39961e-05
18 *703:13 *706:9 0.0240615
19 *703:19 *706:15 0.00144034
20 *704:7 *706:7 1.36077e-05
21 *705:15 *706:7 8.60154e-05
22 *705:15 *706:9 0.00299531
23 *705:25 *706:15 0
24 *705:27 *706:17 0.0397637
*RES
1 *897:analog_ctrl[26] *706:7 3.7578 
2 *706:7 *706:9 340.125 
3 *706:9 *706:15 24.7756 
4 *706:15 *706:17 84.4214 
5 *706:17 *892:resolution[1] 9.3941 
*END

*D_NET *707 0.206768
*CONN
*I *892:sample_width[0] I *D CF_ADC_SAR12
*I *897:analog_ctrl[27] O *D soc_sys
*CAP
1 *892:sample_width[0] 0.00472406
2 *897:analog_ctrl[27] 0.00306261
3 *707:9 0.0218167
4 *707:7 0.0201553
5 *892:sample_width[0] *892:sample_width[1] 3.19777e-05
6 *892:sample_width[0] *892:sample_width[5] 0
7 *892:sample_width[0] *725:13 0.000727209
8 *892:sample_width[0] *728:35 0.000119562
9 *892:sample_width[0] *775:21 0.00309272
10 *707:7 *708:7 0.00115525
11 *707:7 *709:7 0.000464033
12 *707:7 *713:7 0
13 *707:9 *746:9 0
14 *707:9 *781:9 0.000152961
15 *707:9 *784:9 0.0518807
16 *707:9 *890:9 0
17 *42:13 *707:9 8.17003e-05
18 *652:13 *892:sample_width[0] 0.000162575
19 *652:31 *892:sample_width[0] 2.44726e-05
20 *657:19 *892:sample_width[0] 0.0048691
21 *658:19 *892:sample_width[0] 0.00960178
22 *672:19 *892:sample_width[0] 9.31015e-05
23 *672:21 *892:sample_width[0] 0.000169876
24 *694:21 *892:sample_width[0] 0.0131443
25 *695:9 *707:9 0.0670606
26 *695:23 *892:sample_width[0] 0.00406539
27 *702:7 *707:7 0
28 *704:7 *707:7 0
29 *706:7 *707:7 0.000112424
*RES
1 *897:analog_ctrl[27] *707:7 12.1896 
2 *707:7 *707:9 841.625 
3 *707:9 *892:sample_width[0] 43.5802 
*END

*D_NET *708 0.20716
*CONN
*I *892:sample_width[1] I *D CF_ADC_SAR12
*I *897:analog_ctrl[28] O *D soc_sys
*CAP
1 *892:sample_width[1] 0.003581
2 *897:analog_ctrl[28] 0.00074686
3 *708:9 0.0156031
4 *708:7 0.012769
5 *892:sample_width[1] *892:sample_width[5] 0
6 *892:sample_width[1] *892:cap_trim[2] 0.00163657
7 *892:sample_width[1] *892:dft_outc[1] 0.00274427
8 *892:sample_width[1] *724:21 0.00297793
9 *892:sample_width[1] *726:13 0.015552
10 *892:sample_width[1] *776:35 3.57943e-05
11 *708:7 *709:7 0.00106266
12 *708:9 *723:9 0.0662204
13 *708:9 *759:9 0.00217568
14 *708:9 *791:9 0.000451794
15 *892:hiz *892:sample_width[1] 1.42811e-05
16 *892:sof *892:sample_width[1] 0.00655418
17 *892:test_sea *892:sample_width[1] 0.00453562
18 *892:sample_width[0] *892:sample_width[1] 3.19777e-05
19 *665:9 *708:9 0.000116155
20 *670:9 *708:9 1.32704e-05
21 *687:9 *708:9 0.0674244
22 *697:21 *892:sample_width[1] 0.00175799
23 *707:7 *708:7 0.00115525
*RES
1 *897:analog_ctrl[28] *708:7 6.85667 
2 *708:7 *708:9 834.946 
3 *708:9 *892:sample_width[1] 42.1554 
*END

*D_NET *709 0.170259
*CONN
*I *892:sample_width[2] I *D CF_ADC_SAR12
*I *897:analog_ctrl[29] O *D soc_sys
*CAP
1 *892:sample_width[2] 0.000346169
2 *897:analog_ctrl[29] 0.00185987
3 *709:17 0.0172556
4 *709:15 0.0252191
5 *709:9 0.0155983
6 *709:7 0.00914843
7 *892:sample_width[2] *892:sample_width[3] 0.000680092
8 *892:sample_width[2] *892:sample_width[4] 1.30861e-05
9 *709:7 *711:7 0.00139427
10 *709:7 *713:7 0
11 *709:9 *735:9 0.0236259
12 *709:9 *852:13 0
13 *709:9 *891:9 0
14 *709:15 *718:15 0.000160396
15 *709:15 *735:15 0.00586799
16 *709:17 *711:21 0.0405016
17 *709:17 *712:17 0.00464893
18 *897:wbs_dat_i[29] *709:15 0.000484011
19 *897:wbs_dat_i[30] *709:15 0.000662104
20 *15:15 *709:17 6.7962e-06
21 *76:57 *709:15 0
22 *563:19 *709:17 9.64915e-05
23 *628:12 *709:15 0.000413572
24 *628:14 *709:17 1.33421e-05
25 *632:16 *709:15 0.00100319
26 *651:13 *709:9 0.0160946
27 *658:21 *709:9 0.00242289
28 *691:9 *709:9 0.00121605
29 *707:7 *709:7 0.000464033
30 *708:7 *709:7 0.00106266
*RES
1 *897:analog_ctrl[29] *709:7 10.0276 
2 *709:7 *709:9 321.911 
3 *709:9 *709:15 35.2252 
4 *709:15 *709:17 86.5521 
5 *709:17 *892:sample_width[2] 12.4713 
*END

*D_NET *710 0.308831
*CONN
*I *895:tp I *D CF_BUF_HIZ
*I *897:analog_ctrl[2] O *D soc_sys
*CAP
1 *895:tp 0
2 *897:analog_ctrl[2] 0.00290442
3 *710:29 0.0201334
4 *710:27 0.0202576
5 *710:21 0.005176
6 *710:19 0.00515505
7 *710:13 0.0146664
8 *710:11 0.0145632
9 *710:9 0.0231644
10 *710:7 0.0260688
11 *710:7 *721:7 0.00304382
12 *710:9 *720:9 0.00733782
13 *710:9 *726:9 0
14 *710:9 *730:9 0.000356716
15 *710:9 *738:9 0.0010212
16 *710:9 *755:9 0.047501
17 *710:9 *760:9 0.0224893
18 *710:9 *860:9 0.000708339
19 *710:9 *861:9 0.00246827
20 *710:13 *895:clk2_boost 0.00781674
21 *710:13 *732:13 0.0427126
22 *710:19 *732:19 0.000190602
23 *710:21 *732:21 0.0165246
24 *710:29 *732:29 0.00705791
25 *895:vinn_n *710:29 0.00305474
26 *895:vinp_na *710:29 0.00445257
27 *665:7 *710:7 0.000495481
28 *679:9 *710:9 0.00113145
29 *680:9 *710:9 0.00113145
30 *694:9 *710:9 0.00655162
31 *699:19 *710:7 4.46892e-05
32 *702:9 *710:9 0.000651315
*RES
1 *897:analog_ctrl[2] *710:7 13.2346 
2 *710:7 *710:9 114.89 
3 *710:9 *710:11 3.41 
4 *710:11 *710:13 66.8888 
5 *710:13 *710:19 10.6154 
6 *710:19 *710:21 159.482 
7 *710:21 *710:27 10.3118 
8 *710:27 *710:29 73.0779 
9 *710:29 *895:tp 7.91 
*END

*D_NET *711 0.177958
*CONN
*I *892:sample_width[3] I *D CF_ADC_SAR12
*I *897:analog_ctrl[30] O *D soc_sys
*CAP
1 *892:sample_width[3] 0.000474635
2 *897:analog_ctrl[30] 0.00118901
3 *711:21 0.0170467
4 *711:19 0.0201663
5 *711:9 0.0128021
6 *711:7 0.0103968
7 *892:sample_width[3] *892:sample_width[4] 7.09841e-05
8 *892:sample_width[3] *892:sample_width[6] 0
9 *711:7 *712:7 0.000244399
10 *711:7 *713:7 0.000467803
11 *711:9 *736:9 0.000580788
12 *711:9 *747:9 0
13 *711:9 *788:13 0.00906095
14 *711:9 *881:9 0.000693294
15 *711:19 *712:15 0.000383578
16 *711:19 *714:27 0.00021036
17 *711:19 *716:15 0.0137324
18 *711:19 *718:15 0.000273926
19 *711:19 *759:19 3.50637e-05
20 *711:19 *762:17 0.000231261
21 *711:19 *771:15 0.00238904
22 *892:sample_width[2] *892:sample_width[3] 0.000680092
23 *15:15 *711:21 0.00480404
24 *78:21 *711:19 0.000148348
25 *650:17 *711:9 0.0164014
26 *656:25 *711:9 0.00517141
27 *665:13 *711:19 0.0159249
28 *671:19 *711:19 0.00112379
29 *672:9 *711:9 0.00135929
30 *709:7 *711:7 0.00139427
31 *709:17 *711:21 0.0405016
*RES
1 *897:analog_ctrl[30] *711:7 7.93767 
2 *711:7 *711:9 324.339 
3 *711:9 *711:19 33.693 
4 *711:19 *711:21 85.4867 
5 *711:21 *892:sample_width[3] 13.3667 
*END

*D_NET *712 0.123922
*CONN
*I *892:sample_width[4] I *D CF_ADC_SAR12
*I *897:analog_ctrl[31] O *D soc_sys
*CAP
1 *892:sample_width[4] 0.000255388
2 *897:analog_ctrl[31] 0.000254538
3 *712:17 0.0263888
4 *712:15 0.0294441
5 *712:9 0.0154994
6 *712:7 0.0124432
7 *892:sample_width[4] *892:sample_width[6] 0
8 *712:7 *713:7 0.000240992
9 *712:9 *741:23 1.90936e-05
10 *712:9 *749:9 0
11 *712:9 *750:9 0
12 *712:9 *751:9 0
13 *712:9 *752:9 0.00727097
14 *712:9 *754:9 0
15 *712:9 *874:11 0.000168638
16 *712:9 *878:11 0.000261834
17 *712:9 *880:11 0.000191901
18 *712:15 *716:15 0.0130658
19 *712:15 *718:15 0.00701837
20 *712:17 *716:17 0
21 *892:sample_width[3] *892:sample_width[4] 7.09841e-05
22 *892:sample_width[2] *892:sample_width[4] 1.30861e-05
23 *15:15 *712:17 0
24 *67:239 *712:9 0.000462415
25 *78:21 *712:15 0.000416162
26 *104:26 *712:9 0
27 *648:35 *712:9 1.94945e-05
28 *676:9 *712:9 0.00512016
29 *699:43 *712:9 1.94945e-05
30 *709:17 *712:17 0.00464893
31 *711:7 *712:7 0.000244399
32 *711:19 *712:15 0.000383578
*RES
1 *897:analog_ctrl[31] *712:7 4.26227 
2 *712:7 *712:9 323.732 
3 *712:9 *712:15 28.8834 
4 *712:15 *712:17 86.339 
5 *712:17 *892:sample_width[4] 9.60265 
*END

*D_NET *713 0.147625
*CONN
*I *892:sample_width[5] I *D CF_ADC_SAR12
*I *897:analog_ctrl[32] O *D soc_sys
*CAP
1 *892:sample_width[5] 0.00473641
2 *897:analog_ctrl[32] 0.00394652
3 *713:9 0.042729
4 *713:7 0.0419391
5 *892:sample_width[5] *892:sample_width[7] 0
6 *892:sample_width[5] *719:19 0.00563772
7 *892:sample_width[5] *720:27 0.0016675
8 *892:sample_width[5] *724:37 0.00559501
9 *892:sample_width[5] *725:13 0
10 *892:sample_width[5] *726:13 0.00264387
11 *892:sample_width[5] *728:35 0.00171503
12 *713:7 *714:7 0.00324752
13 *713:9 *800:9 0.00332565
14 *713:9 *807:9 0
15 *713:9 *814:9 0
16 *713:9 *830:13 0.000451829
17 *713:9 *862:9 0.000619348
18 *713:9 *886:9 0
19 *713:9 *889:9 0.0121528
20 *892:sample_width[1] *892:sample_width[5] 0
21 *892:hiz *892:sample_width[5] 0.000168182
22 *892:iso_en *892:sample_width[5] 0.00282404
23 *892:next *892:sample_width[5] 0.00883173
24 *892:sample_width[0] *892:sample_width[5] 0
25 *67:217 *713:9 0
26 *647:23 *892:sample_width[5] 4.65519e-05
27 *648:19 *892:sample_width[5] 0.000807548
28 *677:9 *713:9 0
29 *682:9 *713:9 0
30 *689:9 *713:9 0
31 *690:9 *713:9 0
32 *697:31 *892:sample_width[5] 0.0038308
33 *707:7 *713:7 0
34 *709:7 *713:7 0
35 *711:7 *713:7 0.000467803
36 *712:7 *713:7 0.000240992
*RES
1 *897:analog_ctrl[32] *713:7 15.2885 
2 *713:7 *713:9 831.911 
3 *713:9 *892:sample_width[5] 42.2434 
*END

*D_NET *714 0.163233
*CONN
*I *892:sample_width[6] I *D CF_ADC_SAR12
*I *897:analog_ctrl[33] O *D soc_sys
*CAP
1 *892:sample_width[6] 0.00144658
2 *897:analog_ctrl[33] 0.00286868
3 *714:29 0.0185002
4 *714:27 0.0223846
5 *714:9 0.0178117
6 *714:7 0.0153494
7 *892:sample_width[6] *892:sample_width[8] 2.48858e-05
8 *892:sample_width[6] *892:sample_width[9] 2.48858e-05
9 *714:7 *715:7 0.00259026
10 *714:9 *726:9 0.00318262
11 *714:9 *815:9 0
12 *714:9 *816:9 0.000952773
13 *714:9 *818:9 0
14 *714:9 *821:9 0.00348367
15 *714:9 *822:13 0.00938564
16 *714:9 *825:21 0
17 *714:27 *718:15 0
18 *714:27 *757:19 5.85763e-05
19 *714:27 *757:29 0.000319056
20 *714:27 *759:19 0.000135743
21 *714:27 *760:19 2.35215e-05
22 *714:27 *771:15 0.00179307
23 *892:sample_width[3] *892:sample_width[6] 0
24 *892:sample_width[4] *892:sample_width[6] 0
25 *892:resolution[0] *892:sample_width[6] 2.48858e-05
26 *892:resolution[1] *892:sample_width[6] 4.98422e-05
27 *892:vinp *714:29 0.00942076
28 *73:21 *714:27 0.000122824
29 *665:13 *714:27 0.000435288
30 *671:21 *714:27 0.0113043
31 *680:9 *714:9 0
32 *689:9 *714:9 0
33 *701:15 *714:27 0.000213274
34 *702:23 *714:27 0.0163949
35 *702:25 *714:29 0.0214728
36 *706:17 *714:29 0
37 *711:19 *714:27 0.00021036
38 *713:7 *714:7 0.00324752
*RES
1 *897:analog_ctrl[33] *714:7 14.2075 
2 *714:7 *714:9 324.339 
3 *714:9 *714:27 43.5185 
4 *714:27 *714:29 85.1671 
5 *714:29 *892:sample_width[6] 13.5325 
*END

*D_NET *715 0.204664
*CONN
*I *892:sample_width[7] I *D CF_ADC_SAR12
*I *897:analog_ctrl[34] O *D soc_sys
*CAP
1 *892:sample_width[7] 0.00722129
2 *897:analog_ctrl[34] 0.00236279
3 *715:9 0.0189595
4 *715:7 0.014101
5 *892:sample_width[7] *730:13 0.0176979
6 *892:sample_width[7] *782:17 0
7 *715:7 *716:7 0.000482948
8 *715:7 *718:7 0
9 *715:7 *720:7 0
10 *715:9 *728:9 0.0662472
11 *715:9 *757:9 0.00149665
12 *715:9 *758:23 0.000259591
13 *715:9 *758:25 0
14 *715:9 *772:17 0.00476677
15 *715:9 *888:11 0.00062988
16 *892:sample_width[5] *892:sample_width[7] 0
17 *42:13 *715:9 0
18 *657:21 *715:9 3.89155e-05
19 *692:9 *715:9 0.000643958
20 *696:9 *715:9 0.000179434
21 *704:9 *715:9 0.0669858
22 *714:7 *715:7 0.00259026
*RES
1 *897:analog_ctrl[34] *715:7 11.3248 
2 *715:7 *715:9 836.161 
3 *715:9 *892:sample_width[7] 44.2147 
*END

*D_NET *716 0.177432
*CONN
*I *892:sample_width[8] I *D CF_ADC_SAR12
*I *897:analog_ctrl[35] O *D soc_sys
*CAP
1 *892:sample_width[8] 0.000140707
2 *897:analog_ctrl[35] 0.000433946
3 *716:17 0.0195733
4 *716:15 0.02205
5 *716:9 0.00806227
6 *716:7 0.00587884
7 *892:sample_width[8] *892:sample_width[9] 2.29294e-05
8 *716:7 *717:7 0.000456691
9 *716:7 *718:7 9.58787e-06
10 *716:9 *717:9 0.0254018
11 *716:9 *727:9 0.0245344
12 *716:9 *743:9 5.05693e-05
13 *716:9 *819:9 0.000346586
14 *716:15 *718:15 0.000107962
15 *716:15 *771:15 0.00229785
16 *716:17 *717:17 0.0388301
17 *892:sample_width[6] *892:sample_width[8] 2.48858e-05
18 *103:39 *716:9 0.00192845
19 *711:19 *716:15 0.0137324
20 *712:15 *716:15 0.0130658
21 *712:17 *716:17 0
22 *715:7 *716:7 0.000482948
*RES
1 *897:analog_ctrl[35] *716:7 4.98293 
2 *716:7 *716:9 319.482 
3 *716:9 *716:15 28.451 
4 *716:15 *716:17 86.2325 
5 *716:17 *892:sample_width[8] 9.32714 
*END

*D_NET *717 0.188036
*CONN
*I *892:sample_width[9] I *D CF_ADC_SAR12
*I *897:analog_ctrl[36] O *D soc_sys
*CAP
1 *892:sample_width[9] 0.000132067
2 *897:analog_ctrl[36] 0.000417314
3 *717:17 0.0254299
4 *717:15 0.0282832
5 *717:9 0.00911626
6 *717:7 0.00654827
7 *717:7 *718:7 0.000456691
8 *717:9 *727:9 0.000364778
9 *717:9 *743:9 0.0260124
10 *717:9 *748:9 0.000207444
11 *717:9 *754:9 0.000750693
12 *717:9 *763:9 0
13 *717:15 *733:15 0.0104769
14 *892:sample_width[6] *892:sample_width[9] 2.48858e-05
15 *892:sample_width[8] *892:sample_width[9] 2.29294e-05
16 *103:39 *717:9 0.00152506
17 *111:27 *717:15 0.0135788
18 *700:15 *717:15 0
19 *716:7 *717:7 0.000456691
20 *716:9 *717:9 0.0254018
21 *716:17 *717:17 0.0388301
*RES
1 *897:analog_ctrl[36] *717:7 4.91087 
2 *717:7 *717:9 343.768 
3 *717:9 *717:15 28.2348 
4 *717:15 *717:17 81.7581 
5 *717:17 *892:sample_width[9] 9.10839 
*END

*D_NET *718 0.21916
*CONN
*I *892:cap_trim[0] I *D CF_ADC_SAR12
*I *897:analog_ctrl[37] O *D soc_sys
*CAP
1 *892:cap_trim[0] 0.00280276
2 *897:analog_ctrl[37] 0.00207354
3 *718:17 0.0322118
4 *718:15 0.0359178
5 *718:9 0.0145531
6 *718:7 0.0101179
7 *892:cap_trim[0] *892:cap_trim[1] 0.000439907
8 *892:cap_trim[0] *724:37 0.0220923
9 *718:7 *719:7 0.00185228
10 *718:7 *720:7 0.000154226
11 *718:9 *741:25 0.00023996
12 *718:9 *757:9 0
13 *718:9 *772:17 0
14 *718:9 *781:17 0.0162452
15 *718:9 *848:23 0.000939465
16 *718:15 *735:15 0.000959713
17 *892:enable_hv *892:cap_trim[0] 9.40348e-05
18 *897:wbs_adr_i[28] *718:15 9.5164e-05
19 *897:wbs_adr_i[29] *718:15 4.98422e-05
20 *897:wbs_adr_i[30] *718:15 9.5164e-05
21 *897:wbs_adr_i[31] *718:15 4.98422e-05
22 *897:wbs_dat_i[28] *718:15 9.5164e-05
23 *897:wbs_dat_i[29] *718:15 0.00141643
24 *897:wbs_dat_i[30] *718:15 0.000944536
25 *897:wbs_dat_i[31] *718:15 0.000675432
26 *78:21 *718:15 0.0025151
27 *627:8 *718:15 4.98422e-05
28 *628:12 *718:15 0.00122707
29 *629:8 *718:15 0.000675432
30 *631:8 *718:15 0.000689957
31 *632:16 *718:15 0.000867992
32 *651:21 *718:9 0.00923327
33 *671:19 *718:15 0.000321723
34 *676:23 *718:15 0.00306301
35 *697:9 *718:9 0.0258263
36 *697:31 *892:cap_trim[0] 0.0225474
37 *709:15 *718:15 0.000160396
38 *711:19 *718:15 0.000273926
39 *712:15 *718:15 0.00701837
40 *714:27 *718:15 0
41 *715:7 *718:7 0
42 *716:7 *718:7 9.58787e-06
43 *716:15 *718:15 0.000107962
44 *717:7 *718:7 0.000456691
*RES
1 *897:analog_ctrl[37] *718:7 10.2078 
2 *718:7 *718:9 55.3378 
3 *718:9 *718:15 38.1439 
4 *718:15 *718:17 89.6415 
5 *718:17 *892:cap_trim[0] 44.6353 
*END

*D_NET *719 0.265427
*CONN
*I *892:cap_trim[1] I *D CF_ADC_SAR12
*I *897:analog_ctrl[38] O *D soc_sys
*CAP
1 *892:cap_trim[1] 0.000971426
2 *897:analog_ctrl[38] 0.00124307
3 *719:21 0.00609248
4 *719:19 0.00638969
5 *719:9 0.0366094
6 *719:7 0.0365838
7 *892:cap_trim[1] *892:cap_trim[2] 5.28557e-05
8 *892:cap_trim[1] *892:icont_lv[1] 0.00435048
9 *892:cap_trim[1] *724:37 0.00395313
10 *719:7 *720:7 0.00184482
11 *719:9 *731:9 0.0121271
12 *719:9 *740:11 0.00542083
13 *719:9 *769:9 0.000677363
14 *719:9 *824:21 0.0125744
15 *719:19 *728:35 0.00248038
16 *719:21 *723:13 0.00137012
17 *719:21 *723:23 6.26086e-05
18 *719:21 *728:35 0.0094901
19 *719:21 *728:55 0.00453446
20 *892:sample_width[5] *719:19 0.00563772
21 *892:hiz *719:21 0.00241938
22 *892:cap_trim[0] *892:cap_trim[1] 0.000439907
23 *892:enable_hv *892:cap_trim[1] 3.63422e-05
24 *646:10 *719:9 0.00997913
25 *648:21 *719:9 0.0102112
26 *650:13 *719:21 0.0012628
27 *652:31 *719:19 0.00299727
28 *652:33 *719:9 0.0361717
29 *658:21 *719:9 0
30 *672:37 *719:21 0.0142886
31 *694:21 *719:21 0.0308648
32 *697:31 *892:cap_trim[1] 1.39702e-05
33 *701:9 *719:9 0.00242289
34 *718:7 *719:7 0.00185228
*RES
1 *897:analog_ctrl[38] *719:7 9.0547 
2 *719:7 *719:9 144.826 
3 *719:9 *719:19 21.1237 
4 *719:19 *719:21 48.9803 
5 *719:21 *892:cap_trim[1] 24.7796 
*END

*D_NET *720 0.237698
*CONN
*I *892:cap_trim[2] I *D CF_ADC_SAR12
*I *897:analog_ctrl[39] O *D soc_sys
*CAP
1 *892:cap_trim[2] 0.0056708
2 *897:analog_ctrl[39] 0.00336327
3 *720:27 0.00622273
4 *720:13 0.00515971
5 *720:11 0.00460778
6 *720:9 0.0175831
7 *720:7 0.0209463
8 *892:cap_trim[2] *892:pd 0.000246394
9 *892:cap_trim[2] *892:dft_outc[1] 0.00664052
10 *892:cap_trim[2] *726:13 0.00662403
11 *892:cap_trim[2] *776:35 0.027609
12 *720:7 *722:7 0.000134905
13 *720:7 *723:7 0.000469088
14 *720:7 *724:7 0
15 *720:9 *730:9 0.0658589
16 *720:9 *755:9 0.00116558
17 *720:9 *844:17 0
18 *720:13 *724:21 0.000730219
19 *720:13 *724:35 7.35965e-05
20 *720:13 *726:13 0.00220504
21 *720:27 *726:13 0.00166342
22 *892:sample_width[1] *892:cap_trim[2] 0.00163657
23 *892:sample_width[5] *720:27 0.0016675
24 *892:cap_trim[1] *892:cap_trim[2] 5.28557e-05
25 *656:13 *720:13 0.00714758
26 *657:7 *720:27 8.23597e-06
27 *694:9 *720:9 0.038499
28 *695:13 *720:13 0
29 *696:13 *720:13 0
30 *697:21 *720:13 0.00215518
31 *697:31 *892:cap_trim[2] 0.000219507
32 *710:9 *720:9 0.00733782
33 *715:7 *720:7 0
34 *718:7 *720:7 0.000154226
35 *719:7 *720:7 0.00184482
*RES
1 *897:analog_ctrl[39] *720:7 13.2706 
2 *720:7 *720:9 822.652 
3 *720:9 *720:11 4.5 
4 *720:11 *720:13 124.571 
5 *720:13 *720:27 18.1918 
6 *720:27 *892:cap_trim[2] 49.5059 
*END

*D_NET *721 0.310963
*CONN
*I *895:clk2_boost I *D CF_BUF_HIZ
*I *897:analog_ctrl[3] O *D soc_sys
*CAP
1 *895:clk2_boost 0.0715593
2 *897:analog_ctrl[3] 0.00326679
3 *721:9 0.0907451
4 *721:7 0.0224526
5 *895:clk2_boost *895:clk1_boostr 7.00397e-05
6 *895:clk2_boost *732:13 0.0164203
7 *895:clk2_boost *732:29 0.0190495
8 *721:7 *732:7 0.00390625
9 *721:9 *724:9 0.00181235
10 *721:9 *725:9 0.0269254
11 *721:9 *732:9 0.000455628
12 *721:9 *778:9 0.0243558
13 *721:9 *802:9 0.00354735
14 *721:9 *807:9 0.000569536
15 *721:9 *828:17 0.00186716
16 *721:9 *831:13 0.00354735
17 *721:9 *837:13 0.000792054
18 *721:9 *863:9 0.00394342
19 *721:9 *867:9 0.00404228
20 *721:9 *886:9 0.000569536
21 *895:vinp_n *895:clk2_boost 6.46529e-05
22 *895:vinn_n *895:clk2_boost 2.11419e-05
23 *895:vinp_na *895:clk2_boost 6.2289e-05
24 *895:vinn_na *895:clk2_boost 5.65136e-05
25 *895:vinp_p *895:clk2_boost 0
26 *710:7 *721:7 0.00304382
27 *710:13 *895:clk2_boost 0.00781674
*RES
1 *897:analog_ctrl[3] *721:7 16.1172 
2 *721:7 *721:9 114.783 
3 *721:9 *895:clk2_boost 37.3119 
*END

*D_NET *722 0.186759
*CONN
*I *892:icont_lv[0] I *D CF_ADC_SAR12
*I *897:analog_ctrl[40] O *D soc_sys
*CAP
1 *892:icont_lv[0] 0.000149757
2 *897:analog_ctrl[40] 9.79077e-05
3 *722:17 0.026238
4 *722:15 0.0260882
5 *722:13 0.0140841
6 *722:11 0.0140841
7 *722:9 0.00622688
8 *722:7 0.00632478
9 *722:7 *723:7 0.000134905
10 *722:13 *754:13 0.0390213
11 *722:17 *759:33 0
12 *892:refby2 *722:17 0
13 *112:37 *722:9 0.0272845
14 *118:75 *722:9 0
15 *699:43 *722:9 0.000137276
16 *699:47 *722:9 0.000868818
17 *700:11 *722:9 0
18 *703:13 *722:9 0.000130158
19 *705:19 *722:9 1.37595e-05
20 *706:9 *722:9 0.0257397
21 *720:7 *722:7 0.000134905
*RES
1 *897:analog_ctrl[40] *722:7 3.82987 
2 *722:7 *722:9 342.554 
3 *722:9 *722:11 3.41 
4 *722:11 *722:13 61.9883 
5 *722:13 *722:15 3.41 
6 *722:15 *722:17 81.1189 
7 *722:17 *892:icont_lv[0] 9.1441 
*END

*D_NET *723 0.229803
*CONN
*I *892:icont_lv[1] I *D CF_ADC_SAR12
*I *897:analog_ctrl[41] O *D soc_sys
*CAP
1 *892:icont_lv[1] 0.00142301
2 *897:analog_ctrl[41] 0.00084274
3 *723:23 0.00502443
4 *723:13 0.0053501
5 *723:11 0.00174868
6 *723:9 0.0211466
7 *723:7 0.0219893
8 *892:icont_lv[1] *892:dft_outc[0] 0.00379372
9 *892:icont_lv[1] *724:37 2.30802e-05
10 *723:7 *724:7 0.00116008
11 *723:9 *739:11 0.000800098
12 *723:9 *759:9 0.00127156
13 *723:9 *770:17 0.000643127
14 *723:9 *790:9 0.000116155
15 *723:9 *791:9 0.00338735
16 *723:13 *775:21 0.000522926
17 *723:23 *892:dft_outc[0] 3.29849e-05
18 *723:23 *724:37 0.0248273
19 *723:23 *728:35 0.00516603
20 *723:23 *728:55 0.00462549
21 *892:hiz *723:23 9.01724e-06
22 *892:cap_trim[1] *892:icont_lv[1] 0.00435048
23 *892:dly_inc *892:icont_lv[1] 0.000138064
24 *649:9 *723:13 4.37451e-05
25 *650:13 *723:13 0.0100361
26 *652:13 *723:13 0.00777966
27 *657:9 *723:13 2.24804e-05
28 *657:19 *723:13 0.000103646
29 *670:9 *723:9 0
30 *671:9 *723:9 0.0187356
31 *672:21 *723:13 6.11842e-05
32 *672:37 *723:23 0.0142886
33 *694:21 *892:icont_lv[1] 0.000252553
34 *694:21 *723:13 0.000359738
35 *695:13 *723:13 0.00010978
36 *696:13 *723:23 0.000838734
37 *696:23 *892:icont_lv[1] 0.000209232
38 *697:31 *892:icont_lv[1] 0.000312872
39 *708:9 *723:9 0.0662204
40 *719:21 *723:13 0.00137012
41 *719:21 *723:23 6.26086e-05
42 *720:7 *723:7 0.000469088
43 *722:7 *723:7 0.000134905
*RES
1 *897:analog_ctrl[41] *723:7 6.92873 
2 *723:7 *723:9 823.866 
3 *723:9 *723:11 4.5 
4 *723:11 *723:13 100.339 
5 *723:13 *723:23 48.2807 
6 *723:23 *892:icont_lv[1] 17.2794 
*END

*D_NET *724 0.26938
*CONN
*I *892:dft_inc[0] I *D CF_ADC_SAR12
*I *897:analog_ctrl[42] O *D soc_sys
*CAP
1 *892:dft_inc[0] 8.07536e-05
2 *897:analog_ctrl[42] 0.00415939
3 *724:37 0.00391461
4 *724:35 0.00409296
5 *724:21 0.0055789
6 *724:19 0.00544893
7 *724:9 0.0200523
8 *724:7 0.0240825
9 *892:dft_inc[0] *892:dft_inc[1] 0.000277479
10 *892:dft_inc[0] *892:dft_outc[2] 0.000241463
11 *724:7 *725:7 0.00396806
12 *724:9 *732:9 0.0504736
13 *724:9 *778:9 0.0632243
14 *724:9 *806:17 0.000364679
15 *724:9 *811:9 0.00191184
16 *724:9 *855:9 0.00214754
17 *724:21 *726:13 0.00144945
18 *724:37 *728:35 3.19604e-05
19 *892:sample_width[1] *724:21 0.00297793
20 *892:sample_width[5] *724:37 0.00559501
21 *892:hiz *724:37 0.00143612
22 *892:iso_en *724:35 0.00016334
23 *892:cap_trim[1] *724:37 0.00395313
24 *892:cap_trim[0] *724:37 0.0220923
25 *892:icont_lv[1] *724:37 2.30802e-05
26 *657:7 *724:35 1.94945e-05
27 *696:13 *724:35 0.00010982
28 *696:13 *724:37 0.000679102
29 *697:21 *724:21 0.0107816
30 *697:31 *724:37 0.00144532
31 *720:7 *724:7 0
32 *720:13 *724:21 0.000730219
33 *720:13 *724:35 7.35965e-05
34 *721:9 *724:9 0.00181235
35 *723:7 *724:7 0.00116008
36 *723:23 *724:37 0.0248273
*RES
1 *897:analog_ctrl[42] *724:7 16.5496 
2 *724:7 *724:9 143.547 
3 *724:9 *724:19 11.824 
4 *724:19 *724:21 138.946 
5 *724:21 *724:35 22.4368 
6 *724:35 *724:37 46.7462 
7 *724:37 *892:dft_inc[0] 6.87875 
*END

*D_NET *725 0.262462
*CONN
*I *892:dft_inc[1] I *D CF_ADC_SAR12
*I *897:analog_ctrl[43] O *D soc_sys
*CAP
1 *892:dft_inc[1] 0.000324994
2 *897:analog_ctrl[43] 0.00330961
3 *725:13 0.00935959
4 *725:11 0.00903459
5 *725:9 0.0227837
6 *725:7 0.0260933
7 *892:dft_inc[1] *892:dft_inc[2] 9.88401e-05
8 *892:dft_inc[1] *892:dft_outc[2] 0.00019037
9 *725:7 *726:7 0.0032196
10 *725:9 *756:9 0.00119413
11 *725:9 *778:9 0.00208971
12 *725:9 *780:9 0.0635517
13 *725:9 *800:9 0.000410052
14 *725:9 *807:9 0.0010388
15 *725:9 *814:9 0.000620259
16 *725:9 *837:13 0.00256379
17 *725:9 *886:9 0.00116202
18 *725:13 *730:13 0.0430425
19 *725:13 *775:29 4.47593e-05
20 *892:sample_width[5] *725:13 0
21 *892:sample_width[0] *725:13 0.000727209
22 *892:trimunit *892:dft_inc[1] 0
23 *892:dft_inc[0] *892:dft_inc[1] 0.000277479
24 *658:19 *725:13 0.00954212
25 *690:9 *725:9 0.00489514
26 *695:23 *725:13 0.00187178
27 *696:23 *725:13 0.0241222
28 *721:9 *725:9 0.0269254
29 *724:7 *725:7 0.00396806
*RES
1 *897:analog_ctrl[43] *725:7 15.829 
2 *725:7 *725:9 144.613 
3 *725:9 *725:11 3.41 
4 *725:11 *725:13 71.1408 
5 *725:13 *892:dft_inc[1] 11.7359 
*END

*D_NET *726 0.224167
*CONN
*I *892:dft_inc[2] I *D CF_ADC_SAR12
*I *897:analog_ctrl[44] O *D soc_sys
*CAP
1 *892:dft_inc[2] 4.95413e-05
2 *897:analog_ctrl[44] 0.00338812
3 *726:13 0.00919691
4 *726:11 0.00914737
5 *726:9 0.0365922
6 *726:7 0.0399803
7 *726:7 *727:7 0.000468479
8 *726:7 *728:7 0.000753779
9 *726:7 *729:7 0
10 *726:7 *730:7 0
11 *726:9 *738:9 0
12 *726:9 *755:9 0
13 *726:9 *760:9 0
14 *726:9 *815:9 0.000947485
15 *726:9 *816:9 0.00159974
16 *726:9 *821:9 0.00102523
17 *726:9 *822:13 0.00173062
18 *726:9 *825:21 0.000161595
19 *726:9 *870:13 0.00128837
20 *726:9 *885:9 0.000161595
21 *726:13 *892:pd 0.000648966
22 *726:13 *892:dft_outc[1] 0.00559973
23 *892:sample_width[1] *726:13 0.015552
24 *892:sample_width[5] *726:13 0.00264387
25 *892:sof *726:13 1.83409e-05
26 *892:test_sea *726:13 0.00102578
27 *892:next *726:13 0.00882548
28 *892:trimunit *892:dft_inc[2] 0
29 *892:cap_trim[2] *726:13 0.00662403
30 *892:dft_inc[1] *892:dft_inc[2] 9.88401e-05
31 *40:13 *726:9 0.0336568
32 *647:23 *726:13 4.65519e-05
33 *648:19 *726:13 0.000807548
34 *656:13 *726:13 0.00138532
35 *697:19 *726:13 0.000133323
36 *697:21 *726:13 0.000380205
37 *697:31 *726:13 0.0285089
38 *710:9 *726:9 0
39 *714:9 *726:9 0.00318262
40 *720:13 *726:13 0.00220504
41 *720:27 *726:13 0.00166342
42 *724:21 *726:13 0.00144945
43 *725:7 *726:7 0.0032196
*RES
1 *897:analog_ctrl[44] *726:7 14.2435 
2 *726:7 *726:9 143.228 
3 *726:9 *726:11 3.41 
4 *726:11 *726:13 69.6062 
5 *726:13 *892:dft_inc[2] 4.68679 
*END

*D_NET *727 0.192704
*CONN
*I *892:dft_inc[3] I *D CF_ADC_SAR12
*I *897:analog_ctrl[45] O *D soc_sys
*CAP
1 *892:dft_inc[3] 0.000153748
2 *897:analog_ctrl[45] 0.000509243
3 *727:17 0.0279064
4 *727:15 0.0277526
5 *727:13 0.0117831
6 *727:11 0.0117831
7 *727:9 0.0054753
8 *727:7 0.00598455
9 *892:dft_inc[3] *892:pd_ana 0
10 *727:7 *728:7 0.000465146
11 *727:9 *748:9 0.0234187
12 *727:9 *819:9 0.000959122
13 *727:13 *743:13 0.000386051
14 *727:17 *759:33 0
15 *72:13 *727:13 0
16 *73:21 *727:13 4.08422e-05
17 *103:39 *727:9 0.00178262
18 *698:17 *727:13 0.0377135
19 *706:15 *727:13 0.0112219
20 *716:9 *727:9 0.0245344
21 *717:9 *727:9 0.000364778
22 *726:7 *727:7 0.000468479
*RES
1 *897:analog_ctrl[45] *727:7 5.055 
2 *727:7 *727:9 316.446 
3 *727:9 *727:11 3.41 
4 *727:11 *727:13 60.4749 
5 *727:13 *727:15 3.41 
6 *727:15 *727:17 84.6345 
7 *727:17 *892:dft_inc[3] 9.1575 
*END

*D_NET *728 0.250467
*CONN
*I *892:dft_outc[0] I *D CF_ADC_SAR12
*I *897:analog_ctrl[46] O *D soc_sys
*CAP
1 *892:dft_outc[0] 0.000857721
2 *897:analog_ctrl[46] 0.00225261
3 *728:55 0.00417327
4 *728:35 0.00811819
5 *728:9 0.0237484
6 *728:7 0.0211984
7 *892:dft_outc[0] *892:pd 1.79516e-05
8 *892:dft_outc[0] *892:dft_outc[2] 0.000156796
9 *892:dft_outc[0] *892:dft_outc[1] 5.24643e-05
10 *728:7 *729:7 0.00255942
11 *728:9 *737:9 0.00126983
12 *728:9 *757:9 0.000149758
13 *728:9 *888:11 0.000861942
14 *728:35 *775:19 0.000176804
15 *728:55 *775:21 0.00315869
16 *892:sample_width[5] *728:35 0.00171503
17 *892:hiz *728:35 0.00825992
18 *892:sample_width[0] *728:35 0.000119562
19 *892:icont_lv[1] *892:dft_outc[0] 0.00379372
20 *42:13 *728:9 0
21 *649:9 *728:35 0.00104619
22 *651:9 *728:35 0.00113188
23 *652:31 *728:35 0.00295705
24 *657:19 *728:35 0.00322073
25 *672:37 *728:35 7.16674e-05
26 *672:37 *728:55 8.12154e-05
27 *692:9 *728:9 0.0312978
28 *694:21 *892:dft_outc[0] 0.00388522
29 *694:21 *728:35 2.5212e-05
30 *694:21 *728:55 0.014301
31 *695:13 *728:35 0.000882309
32 *695:23 *728:55 0.0142803
33 *696:13 *728:35 0.000818226
34 *715:9 *728:9 0.0662472
35 *719:19 *728:35 0.00248038
36 *719:21 *728:35 0.0094901
37 *719:21 *728:55 0.00453446
38 *723:23 *892:dft_outc[0] 3.29849e-05
39 *723:23 *728:35 0.00516603
40 *723:23 *728:55 0.00462549
41 *724:37 *728:35 3.19604e-05
42 *726:7 *728:7 0.000753779
43 *727:7 *728:7 0.000465146
*RES
1 *897:analog_ctrl[46] *728:7 11.3969 
2 *728:7 *728:9 817.339 
3 *728:9 *728:35 48.1505 
4 *728:35 *728:55 45.4557 
5 *728:55 *892:dft_outc[0] 14.8368 
*END

*D_NET *729 0.239764
*CONN
*I *892:dft_outc[1] I *D CF_ADC_SAR12
*I *897:analog_ctrl[47] O *D soc_sys
*CAP
1 *892:dft_outc[1] 0.0287337
2 *897:analog_ctrl[47] 0.00236287
3 *729:9 0.0731003
4 *729:7 0.0467294
5 *892:dft_outc[1] *892:sel_csel_dft[0] 0.00170739
6 *892:dft_outc[1] *892:pd 0.000143007
7 *892:dft_outc[1] *892:dft_outc[2] 5.24643e-05
8 *892:dft_outc[1] *759:33 0
9 *892:dft_outc[1] *776:35 0.0138252
10 *729:7 *730:7 0.00294575
11 *729:9 *746:9 0.00322681
12 *729:9 *755:9 0.0202069
13 *729:9 *861:9 0.011945
14 *729:9 *890:9 0.00135975
15 *892:sample_width[1] *892:dft_outc[1] 0.00274427
16 *892:sof *892:dft_outc[1] 0.00168843
17 *892:test_sea *892:dft_outc[1] 0.00253438
18 *892:iso_en *892:dft_outc[1] 0.00122849
19 *892:next *892:dft_outc[1] 0.000347927
20 *892:cap_trim[2] *892:dft_outc[1] 0.00664052
21 *892:dft_outc[0] *892:dft_outc[1] 5.24643e-05
22 *646:8 *892:dft_outc[1] 0.000682583
23 *647:23 *892:dft_outc[1] 0.000806523
24 *648:19 *892:dft_outc[1] 0.00153401
25 *656:23 *892:dft_outc[1] 0.00045027
26 *674:9 *729:9 0.00258586
27 *678:9 *729:9 0.00395573
28 *697:31 *892:dft_outc[1] 1.51904e-05
29 *726:7 *729:7 0
30 *726:13 *892:dft_outc[1] 0.00559973
31 *728:7 *729:7 0.00255942
*RES
1 *897:analog_ctrl[47] *729:7 12.658 
2 *729:7 *729:9 142.162 
3 *729:9 *892:dft_outc[1] 16.7721 
*END

*D_NET *730 0.263104
*CONN
*I *892:dft_outc[2] I *D CF_ADC_SAR12
*I *897:analog_ctrl[48] O *D soc_sys
*CAP
1 *892:dft_outc[2] 0.000327772
2 *897:analog_ctrl[48] 0.00284328
3 *730:13 0.0113245
4 *730:11 0.0109967
5 *730:9 0.0117281
6 *730:7 0.0145714
7 *730:7 *731:7 0.00179721
8 *730:7 *735:7 0
9 *730:9 *755:9 0.0124237
10 *730:9 *783:17 0.0576455
11 *730:9 *844:17 0.00330831
12 *730:9 *853:13 0
13 *730:13 *775:29 0.00559476
14 *730:13 *782:17 0
15 *892:sample_width[7] *730:13 0.0176979
16 *892:dft_inc[1] *892:dft_outc[2] 0.00019037
17 *892:dft_inc[0] *892:dft_outc[2] 0.000241463
18 *892:dft_outc[1] *892:dft_outc[2] 5.24643e-05
19 *892:dft_outc[0] *892:dft_outc[2] 0.000156796
20 *710:9 *730:9 0.000356716
21 *720:9 *730:9 0.0658589
22 *725:13 *730:13 0.0430425
23 *726:7 *730:7 0
24 *729:7 *730:7 0.00294575
*RES
1 *897:analog_ctrl[48] *730:7 13.1985 
2 *730:7 *730:9 818.554 
3 *730:9 *730:11 3.41 
4 *730:11 *730:13 68.3662 
5 *730:13 *892:dft_outc[2] 12.343 
*END

*D_NET *731 0.193826
*CONN
*I *892:sel_csel_dft[0] I *D CF_ADC_SAR12
*I *897:analog_ctrl[49] O *D soc_sys
*CAP
1 *892:sel_csel_dft[0] 0.00564629
2 *897:analog_ctrl[49] 0.00155076
3 *731:9 0.0170689
4 *731:7 0.0129734
5 *892:sel_csel_dft[0] *892:sel_csel_dft[1] 9.72997e-05
6 *892:sel_csel_dft[0] *733:17 2.05803e-05
7 *892:sel_csel_dft[0] *776:35 0.000220289
8 *731:7 *733:7 0.000809127
9 *731:7 *734:7 1.36077e-05
10 *731:7 *735:7 0
11 *892:test_scanen *892:sel_csel_dft[0] 0
12 *892:dft_outc[1] *892:sel_csel_dft[0] 0.00170739
13 *646:8 *892:sel_csel_dft[0] 0.0120735
14 *648:21 *731:9 0.0611289
15 *653:8 *892:sel_csel_dft[0] 0
16 *693:9 *731:9 0.0650967
17 *701:9 *731:9 0.00148863
18 *703:21 *892:sel_csel_dft[0] 6.57893e-06
19 *719:9 *731:9 0.0121271
20 *730:7 *731:7 0.00179721
*RES
1 *897:analog_ctrl[49] *731:7 8.9466 
2 *731:7 *731:9 803.982 
3 *731:9 *892:sel_csel_dft[0] 38.6145 
*END

*D_NET *732 0.335028
*CONN
*I *895:e_n_boost I *D CF_BUF_HIZ
*I *897:analog_ctrl[4] O *D soc_sys
*CAP
1 *895:e_n_boost 0.000264069
2 *897:analog_ctrl[4] 0.00430714
3 *732:29 0.0196585
4 *732:27 0.0194321
5 *732:21 0.00495383
6 *732:19 0.00503615
7 *732:13 0.0160303
8 *732:11 0.0159103
9 *732:9 0.0227866
10 *732:7 0.0270938
11 *895:e_n_boost *895:clk1_boostr 9.86169e-05
12 *895:e_n_boost *895:e_na_boost 7.14583e-05
13 *732:7 *743:7 0.000447549
14 *732:9 *742:9 0.00774735
15 *732:9 *793:9 0.00394002
16 *732:9 *796:9 0.000896088
17 *732:9 *798:9 0.000896088
18 *732:9 *804:9 0.000896088
19 *732:9 *806:9 0.0144776
20 *732:9 *806:17 0.000857043
21 *732:9 *811:9 0.000927157
22 *732:9 *832:21 0.000896088
23 *732:9 *836:17 0.00115873
24 *732:9 *847:13 0.00288436
25 *732:9 *855:9 0.000831941
26 *732:29 *895:clk1_boostr 1.86375e-05
27 *895:clk2_boost *732:13 0.0164203
28 *895:clk2_boost *732:29 0.0190495
29 *895:vinp_n *895:e_n_boost 2.98071e-05
30 *895:vinn_n *732:29 0.000569104
31 *895:vinp_na *895:e_n_boost 1.17526e-05
32 *895:vinn_na *732:29 0.00510877
33 *710:13 *732:13 0.0427126
34 *710:19 *732:19 0.000190602
35 *710:21 *732:21 0.0165246
36 *710:29 *732:29 0.00705791
37 *721:7 *732:7 0.00390625
38 *721:9 *732:9 0.000455628
39 *724:9 *732:9 0.0504736
*RES
1 *897:analog_ctrl[4] *732:7 16.6938 
2 *732:7 *732:9 114.357 
3 *732:9 *732:11 3.41 
4 *732:11 *732:13 70.276 
5 *732:13 *732:19 10.9189 
6 *732:19 *732:21 156.607 
7 *732:21 *732:27 8.49036 
8 *732:27 *732:29 73.6991 
9 *732:29 *895:e_n_boost 13.9323 
*END

*D_NET *733 0.15888
*CONN
*I *892:sel_csel_dft[1] I *D CF_ADC_SAR12
*I *897:analog_ctrl[50] O *D soc_sys
*CAP
1 *892:sel_csel_dft[1] 7.72057e-05
2 *897:analog_ctrl[50] 0.000584274
3 *733:17 0.0155578
4 *733:15 0.0196045
5 *733:9 0.0102824
6 *733:7 0.00674277
7 *892:sel_csel_dft[1] *892:sel_csel_dft[2] 9.72997e-05
8 *733:7 *734:7 0.000809127
9 *733:9 *734:9 0.0256723
10 *733:9 *745:9 0.000163392
11 *733:9 *761:15 0.000135968
12 *733:9 *763:9 0
13 *733:9 *764:9 7.3994e-05
14 *733:9 *767:9 0.000712083
15 *733:9 *771:11 0.00152506
16 *733:9 *782:9 0.0217026
17 *733:9 *826:21 3.38439e-05
18 *733:15 *734:15 0
19 *733:17 *734:17 0.0388515
20 *733:17 *735:17 2.50628e-05
21 *892:sel_csel_dft[0] *892:sel_csel_dft[1] 9.72997e-05
22 *892:sel_csel_dft[0] *733:17 2.05803e-05
23 *67:249 *733:9 0
24 *111:27 *733:15 0.000341953
25 *700:15 *733:15 0
26 *703:21 *733:17 0.00448333
27 *717:15 *733:15 0.0104769
28 *731:7 *733:7 0.000809127
*RES
1 *897:analog_ctrl[50] *733:7 5.9198 
2 *733:7 *733:9 326.161 
3 *733:9 *733:15 24.3432 
4 *733:15 *733:17 81.8646 
5 *733:17 *892:sel_csel_dft[1] 8.78696 
*END

*D_NET *734 0.180837
*CONN
*I *892:sel_csel_dft[2] I *D CF_ADC_SAR12
*I *897:analog_ctrl[51] O *D soc_sys
*CAP
1 *892:sel_csel_dft[2] 0.000133145
2 *897:analog_ctrl[51] 0.000598368
3 *734:17 0.00891934
4 *734:15 0.0132362
5 *734:9 0.00982676
6 *734:7 0.00597509
7 *892:sel_csel_dft[2] *892:sel_csel_dft[3] 6.70967e-05
8 *734:7 *735:7 0.000831619
9 *734:9 *745:9 0.0247145
10 *734:9 *761:15 0.000121549
11 *734:9 *771:11 0.00181721
12 *734:9 *826:21 0.000503998
13 *734:15 *748:13 0
14 *734:15 *761:21 0
15 *734:17 *735:17 0.0391572
16 *892:sel_csel_dft[1] *892:sel_csel_dft[2] 9.72997e-05
17 *700:15 *734:15 0.00949069
18 *703:21 *734:17 0
19 *731:7 *734:7 1.36077e-05
20 *733:7 *734:7 0.000809127
21 *733:9 *734:9 0.0256723
22 *733:15 *734:15 0
23 *733:17 *734:17 0.0388515
*RES
1 *897:analog_ctrl[51] *734:7 5.99187 
2 *734:7 *734:9 321.304 
3 *734:9 *734:15 24.2711 
4 *734:15 *734:17 82.3973 
5 *734:17 *892:sel_csel_dft[2] 9.84946 
*END

*D_NET *735 0.170824
*CONN
*I *892:sel_csel_dft[3] I *D CF_ADC_SAR12
*I *897:analog_ctrl[52] O *D soc_sys
*CAP
1 *892:sel_csel_dft[3] 0.000133128
2 *897:analog_ctrl[52] 0.00205401
3 *735:17 0.0196865
4 *735:15 0.0237707
5 *735:9 0.00878998
6 *735:7 0.00662673
7 *735:7 *736:7 0.00155555
8 *735:7 *737:7 0.000248172
9 *892:sel_csel_dft[2] *892:sel_csel_dft[3] 6.70967e-05
10 *892:reset_n *892:sel_csel_dft[3] 0
11 *897:wbs_dat_i[30] *735:15 0.000658789
12 *629:8 *735:15 0.000350279
13 *629:10 *735:17 0.00011129
14 *632:16 *735:15 0.000999876
15 *651:13 *735:9 4.93137e-05
16 *676:23 *735:15 0.00934355
17 *691:9 *735:9 0.0237239
18 *697:9 *735:9 0.00218806
19 *703:21 *735:17 0
20 *709:9 *735:9 0.0236259
21 *709:15 *735:15 0.00586799
22 *718:15 *735:15 0.000959713
23 *730:7 *735:7 0
24 *731:7 *735:7 0
25 *733:17 *735:17 2.50628e-05
26 *734:7 *735:7 0.000831619
27 *734:17 *735:17 0.0391572
*RES
1 *897:analog_ctrl[52] *735:7 10.0997 
2 *735:7 *735:9 295.196 
3 *735:9 *735:15 28.2348 
4 *735:15 *735:17 86.8717 
5 *735:17 *892:sel_csel_dft[3] 9.24232 
*END

*D_NET *736 0.115224
*CONN
*I *893:vref[0] I *D CF_ADC_SAR12_sar_refs
*I *897:analog_ctrl[53] O *D soc_sys
*CAP
1 *893:vref[0] 4.72141e-05
2 *897:analog_ctrl[53] 0.00108365
3 *736:13 0.021731
4 *736:11 0.0216838
5 *736:9 0.0178961
6 *736:7 0.0189797
7 *893:vref[0] *893:vref[1] 3.04052e-05
8 *736:7 *737:7 0.00154873
9 *736:9 *747:9 0.00191181
10 *736:9 *783:15 0.000386122
11 *736:9 *788:13 0.000631653
12 *736:9 *790:9 0
13 *736:9 *859:9 0.000651966
14 *736:9 *881:9 0.000729305
15 *650:25 *736:9 0.00750998
16 *652:33 *736:9 0.00217743
17 *656:25 *736:9 0.000242985
18 *672:9 *736:9 0.0117689
19 *681:9 *736:9 0.00224984
20 *684:9 *736:9 0.00182696
21 *711:9 *736:9 0.000580788
22 *735:7 *736:7 0.00155555
*RES
1 *897:analog_ctrl[53] *736:7 8.1899 
2 *736:7 *736:9 59.8122 
3 *736:9 *736:11 3.41 
4 *736:11 *736:13 60.46 
5 *736:13 *893:vref[0] 0.1833 
*END

*D_NET *737 0.107454
*CONN
*I *893:vref[1] I *D CF_ADC_SAR12_sar_refs
*I *897:analog_ctrl[54] O *D soc_sys
*CAP
1 *893:vref[1] 0.00336278
2 *897:analog_ctrl[54] 0.00221788
3 *737:13 0.0238624
4 *737:11 0.0204997
5 *737:9 0.0152455
6 *737:7 0.0174633
7 *893:vref[1] *893:vref[3] 0
8 *893:vref[1] *893:vref[2] 0.00143968
9 *737:7 *738:7 0.00255691
10 *737:9 *757:9 0.00447372
11 *737:9 *827:21 0.000939465
12 *737:9 *866:9 0.000740393
13 *737:9 *888:11 0.00999183
14 *893:vref[0] *893:vref[1] 3.04052e-05
15 *67:215 *737:13 0.000436071
16 *692:9 *737:9 0.00112719
17 *728:9 *737:9 0.00126983
18 *735:7 *737:7 0.000248172
19 *736:7 *737:7 0.00154873
*RES
1 *897:analog_ctrl[54] *737:7 11.505 
2 *737:7 *737:9 47.987 
3 *737:9 *737:11 3.41 
4 *737:11 *737:13 57.5562 
5 *737:13 *893:vref[1] 18.7274 
*END

*D_NET *738 0.113898
*CONN
*I *893:vref[2] I *D CF_ADC_SAR12_sar_refs
*I *897:analog_ctrl[55] O *D soc_sys
*CAP
1 *893:vref[2] 0.00169035
2 *897:analog_ctrl[55] 0.00326534
3 *738:13 0.0210058
4 *738:11 0.0193154
5 *738:9 0.0143345
6 *738:7 0.0175998
7 *893:vref[2] *893:vref[3] 0.00146479
8 *738:7 *739:7 0.00118041
9 *738:7 *740:7 0.000303736
10 *738:7 *742:7 0
11 *738:9 *760:9 0.0220026
12 *738:9 *825:21 0.00085048
13 *738:9 *860:9 0.0013712
14 *738:9 *885:9 0.000706205
15 *893:vref[1] *893:vref[2] 0.00143968
16 *67:207 *738:13 0
17 *76:57 *738:13 0
18 *679:9 *738:9 0.00205198
19 *680:9 *738:9 0.00147845
20 *702:9 *738:9 0.000259591
21 *710:9 *738:9 0.0010212
22 *726:9 *738:9 0
23 *737:7 *738:7 0.00255691
*RES
1 *897:analog_ctrl[55] *738:7 13.5228 
2 *738:7 *738:9 50.9699 
3 *738:9 *738:11 3.41 
4 *738:11 *738:13 55.9707 
5 *738:13 *893:vref[2] 15.5949 
*END

*D_NET *739 0.111168
*CONN
*I *893:vref[3] I *D CF_ADC_SAR12_sar_refs
*I *897:analog_ctrl[56] O *D soc_sys
*CAP
1 *893:vref[3] 0.00370249
2 *897:analog_ctrl[56] 0.000877439
3 *739:13 0.0254938
4 *739:11 0.0353564
5 *739:7 0.0144426
6 *893:vref[3] *893:vref[4] 0.00238407
7 *739:7 *740:7 0.00108522
8 *739:11 *759:9 0.00947878
9 *739:11 *761:17 0.000665322
10 *739:11 *762:17 0
11 *739:11 *770:17 0.000700608
12 *739:11 *790:9 0.0103344
13 *739:11 *791:9 0.000607761
14 *739:11 *797:9 0.000628444
15 *739:11 *808:9 0.000679856
16 *893:vref[2] *893:vref[3] 0.00146479
17 *893:vref[1] *893:vref[3] 0
18 *665:9 *739:11 0.00057793
19 *671:9 *739:11 0.000707272
20 *723:9 *739:11 0.000800098
21 *738:7 *739:7 0.00118041
*RES
1 *897:analog_ctrl[56] *739:7 7.03683 
2 *739:7 *739:11 46.603 
3 *739:11 *739:13 62.8891 
4 *739:13 *893:vref[3] 23.194 
*END

*D_NET *740 0.108648
*CONN
*I *893:vref[4] I *D CF_ADC_SAR12_sar_refs
*I *897:analog_ctrl[57] O *D soc_sys
*CAP
1 *893:vref[4] 0.00367897
2 *897:analog_ctrl[57] 0.00192418
3 *740:13 0.0258551
4 *740:11 0.0352852
5 *740:7 0.0150332
6 *740:7 *742:7 0.000675002
7 *740:11 *769:9 0.0010226
8 *740:11 *824:21 0.0106889
9 *740:11 *852:13 0.000742735
10 *740:11 *865:9 0.000803497
11 *740:11 *872:9 0.000718291
12 *740:11 *891:9 0.000686413
13 *893:vref[3] *893:vref[4] 0.00238407
14 *658:21 *740:11 0.0023398
15 *719:9 *740:11 0.00542083
16 *738:7 *740:7 0.000303736
17 *739:7 *740:7 0.00108522
*RES
1 *897:analog_ctrl[57] *740:7 9.34297 
2 *740:7 *740:11 48.5206 
3 *740:11 *740:13 61.0154 
4 *740:13 *893:vref[4] 21.0782 
*END

*D_NET *741 0.129204
*CONN
*I *893:PWR_CTRL_VREF[0] I *D CF_ADC_SAR12_sar_refs
*I *897:analog_ctrl[58] O *D soc_sys
*CAP
1 *893:PWR_CTRL_VREF[0] 0.00462581
2 *897:analog_ctrl[58] 0.000826808
3 *741:25 0.0123013
4 *741:23 0.00938801
5 *741:9 0.00253929
6 *893:PWR_CTRL_VREF[0] *893:PWR_CTRL_VREF[1] 0.01549
7 *893:PWR_CTRL_VREF[0] *893:EN_RESVDA 0.000834335
8 *741:9 *773:40 0.000161619
9 *741:9 *776:13 0.000388296
10 *741:23 *780:7 0.00371136
11 *741:23 *781:7 0.00370909
12 *741:25 *781:17 0.00411092
13 *741:25 *848:23 0.00491284
14 *741:25 *868:9 0.000851
15 *893:pd_vcmbuf *893:PWR_CTRL_VREF[0] 0.00132093
16 *893:PD_BUF_VREF *893:PWR_CTRL_VREF[0] 0.016681
17 *67:247 *741:23 0.000507399
18 *118:57 *741:9 0.000633016
19 *675:9 *741:25 0.031248
20 *676:9 *741:23 2.01732e-05
21 *691:9 *741:25 0.0105253
22 *694:15 *893:PWR_CTRL_VREF[0] 0
23 *699:21 *741:9 0.00281129
24 *700:11 *741:9 0.0013476
25 *712:9 *741:23 1.90936e-05
26 *718:9 *741:25 0.00023996
*RES
1 *897:analog_ctrl[58] *741:9 46.622 
2 *741:9 *741:23 27.8058 
3 *741:23 *741:25 406.304 
4 *741:25 *893:PWR_CTRL_VREF[0] 49.5782 
*END

*D_NET *742 0.111376
*CONN
*I *893:PWR_CTRL_VREF[1] I *D CF_ADC_SAR12_sar_refs
*I *897:analog_ctrl[59] O *D soc_sys
*CAP
1 *893:PWR_CTRL_VREF[1] 0.00400954
2 *897:analog_ctrl[59] 0.00498255
3 *742:9 0.0208229
4 *742:7 0.0217959
5 *893:PWR_CTRL_VREF[1] *893:EN_RESVDA 0.00503957
6 *742:7 *744:7 0.0033375
7 *742:7 *806:15 0
8 *742:9 *793:9 0.0109972
9 *742:9 *804:9 6.13629e-05
10 *742:9 *806:9 0.00254172
11 *742:9 *828:17 0
12 *742:9 *831:13 0
13 *742:9 *836:17 0.0137429
14 *742:9 *875:11 0
15 *893:PWR_CTRL_VREF[0] *893:PWR_CTRL_VREF[1] 0.01549
16 *893:pd_vcmbuf *893:PWR_CTRL_VREF[1] 2.76434e-05
17 *893:PD_BUF_VREF *893:PWR_CTRL_VREF[1] 0.00010449
18 *732:9 *742:9 0.00774735
19 *738:7 *742:7 0
20 *740:7 *742:7 0.000675002
*RES
1 *897:analog_ctrl[59] *742:7 16.8739 
2 *742:7 *742:9 447.589 
3 *742:9 *893:PWR_CTRL_VREF[1] 33.7721 
*END

*D_NET *743 0.31829
*CONN
*I *895:e_na_boost I *D CF_BUF_HIZ
*I *897:analog_ctrl[5] O *D soc_sys
*CAP
1 *895:e_na_boost 5.01895e-05
2 *897:analog_ctrl[5] 0.000332303
3 *743:17 0.00744454
4 *743:15 0.00739435
5 *743:13 0.0257838
6 *743:11 0.0257838
7 *743:9 0.00684844
8 *743:7 0.00718074
9 *895:e_na_boost *895:clk1_boostr 5.42998e-05
10 *743:7 *754:7 0.000425444
11 *743:9 *754:9 0.0289213
12 *743:9 *819:9 0
13 *743:17 *754:17 0.0223645
14 *895:vinn_n *895:e_na_boost 4.69361e-05
15 *895:e_n_boost *895:e_na_boost 7.14583e-05
16 *72:13 *743:13 0
17 *73:21 *743:13 0.102074
18 *75:30 *743:17 0.0090401
19 *103:39 *743:9 0.00164661
20 *698:17 *743:13 0.0459307
21 *716:9 *743:9 5.05693e-05
22 *717:9 *743:9 0.0260124
23 *727:13 *743:13 0.000386051
24 *732:7 *743:7 0.000447549
*RES
1 *897:analog_ctrl[5] *743:7 4.8388 
2 *743:7 *743:9 363.804 
3 *743:9 *743:11 3.41 
4 *743:11 *743:13 159.567 
5 *743:13 *743:15 3.41 
6 *743:15 *743:17 51.183 
7 *743:17 *895:e_na_boost 12.132 
*END

*D_NET *744 0.101895
*CONN
*I *893:muxsarref[0] I *D CF_ADC_SAR12_sar_refs
*I *897:analog_ctrl[60] O *D soc_sys
*CAP
1 *893:muxsarref[0] 0.00650422
2 *897:analog_ctrl[60] 0.0037297
3 *744:9 0.0131749
4 *744:7 0.0104004
5 *893:muxsarref[0] *893:muxsarref[2] 0.000367721
6 *893:muxsarref[0] *893:muxsarref[1] 0.0170006
7 *744:7 *745:7 0.000790459
8 *744:7 *746:7 0.000730479
9 *744:9 *818:9 0.00193981
10 *744:9 *871:9 0.0128972
11 *677:9 *744:9 0.0230754
12 *682:9 *744:9 0.00794709
13 *742:7 *744:7 0.0033375
*RES
1 *897:analog_ctrl[60] *744:7 14.8561 
2 *744:7 *744:9 350.446 
3 *744:9 *893:muxsarref[0] 38.1835 
*END

*D_NET *745 0.100603
*CONN
*I *893:muxsarref[1] I *D CF_ADC_SAR12_sar_refs
*I *897:analog_ctrl[61] O *D soc_sys
*CAP
1 *893:muxsarref[1] 0.0100031
2 *897:analog_ctrl[61] 0.000660234
3 *745:9 0.0171681
4 *745:7 0.00782531
5 *893:muxsarref[1] *893:muxsarref[2] 2.2355e-05
6 *745:7 *746:7 0.0008541
7 *745:9 *761:15 0.0002652
8 *745:9 *771:11 0.00153125
9 *745:9 *775:9 0.000516367
10 *745:9 *779:9 0.00733866
11 *745:9 *782:9 0.00111509
12 *745:9 *826:21 0.0106344
13 *893:muxsarref[0] *893:muxsarref[1] 0.0170006
14 *670:9 *745:9 0
15 *733:9 *745:9 0.000163392
16 *734:9 *745:9 0.0247145
17 *744:7 *745:7 0.000790459
*RES
1 *897:analog_ctrl[61] *745:7 6.06393 
2 *745:7 *745:9 348.625 
3 *745:9 *893:muxsarref[1] 47.1006 
*END

*D_NET *746 0.0951019
*CONN
*I *893:muxsarref[2] I *D CF_ADC_SAR12_sar_refs
*I *897:analog_ctrl[62] O *D soc_sys
*CAP
1 *893:muxsarref[2] 0.0104038
2 *897:analog_ctrl[62] 0.00314533
3 *746:9 0.0167173
4 *746:7 0.00945884
5 *746:7 *747:7 0.00154414
6 *746:9 *781:9 0
7 *746:9 *890:9 0.0025314
8 *893:muxsarref[1] *893:muxsarref[2] 2.2355e-05
9 *893:muxsarref[0] *893:muxsarref[2] 0.000367721
10 *674:9 *746:9 0.0231948
11 *678:9 *746:9 0.0229049
12 *707:9 *746:9 0
13 *729:9 *746:9 0.00322681
14 *744:7 *746:7 0.000730479
15 *745:7 *746:7 0.0008541
*RES
1 *897:analog_ctrl[62] *746:7 12.622 
2 *746:7 *746:9 343.768 
3 *746:9 *893:muxsarref[2] 45.4615 
*END

*D_NET *747 0.0998893
*CONN
*I *893:EN_RESVDA I *D CF_ADC_SAR12_sar_refs
*I *897:analog_ctrl[63] O *D soc_sys
*CAP
1 *893:EN_RESVDA 0.0103644
2 *897:analog_ctrl[63] 0.00144834
3 *747:9 0.0240434
4 *747:7 0.0151274
5 *747:7 *748:7 0.000519149
6 *747:9 *859:9 0.00644236
7 *747:9 *869:9 0.00272957
8 *747:9 *881:9 0.000392407
9 *893:PWR_CTRL_VREF[1] *893:EN_RESVDA 0.00503957
10 *893:PWR_CTRL_VREF[0] *893:EN_RESVDA 0.000834335
11 *893:pd_vcmbuf *893:EN_RESVDA 4.01743e-05
12 *893:PD_BUF_VREF *893:EN_RESVDA 0.000208001
13 *649:13 *747:9 0
14 *650:17 *747:9 0
15 *672:9 *747:9 0.000888483
16 *681:9 *747:9 0.0283558
17 *694:15 *893:EN_RESVDA 0
18 *711:9 *747:9 0
19 *736:9 *747:9 0.00191181
20 *746:7 *747:7 0.00154414
*RES
1 *897:analog_ctrl[63] *747:7 8.22593 
2 *747:7 *747:9 440.911 
3 *747:9 *893:EN_RESVDA 46.0342 
*END

*D_NET *748 0.293779
*CONN
*I *894:trimTC[0] I *D CF_BGR
*I *897:analog_ctrl[64] O *D soc_sys
*CAP
1 *894:trimTC[0] 0.000175195
2 *897:analog_ctrl[64] 0.000526907
3 *748:17 0.0283938
4 *748:15 0.0282186
5 *748:13 0.0184871
6 *748:11 0.0184871
7 *748:9 0.00810863
8 *748:7 0.00863554
9 *894:trimTC[0] *894:trimTC[2] 0
10 *894:trimTC[0] *894:trimTC[1] 0.00019825
11 *748:7 *749:7 0.000389377
12 *748:7 *753:7 0
13 *748:9 *897:sram_dat_i[21] 5.42441e-05
14 *748:9 *897:sram_dat_i[24] 3.15988e-05
15 *748:9 *763:9 0
16 *748:9 *805:11 5.20838e-05
17 *748:9 *819:9 0.0087779
18 *748:13 *761:21 0.0713832
19 *748:17 *749:17 0.000370809
20 *748:17 *750:17 0
21 *748:17 *751:21 0
22 *24:13 *894:trimTC[0] 4.4106e-05
23 *44:21 *748:17 0.0624493
24 *67:231 *748:9 0.00112636
25 *103:39 *748:9 0.00156297
26 *653:14 *748:13 0.0120155
27 *671:19 *748:9 0.000145236
28 *700:15 *748:13 0
29 *717:9 *748:9 0.000207444
30 *727:9 *748:9 0.0234187
31 *734:15 *748:13 0
32 *747:7 *748:7 0.000519149
*RES
1 *897:analog_ctrl[64] *748:7 5.12707 
2 *748:7 *748:9 301.268 
3 *748:9 *748:11 3.41 
4 *748:11 *748:13 111.57 
5 *748:13 *748:15 3.41 
6 *748:15 *748:17 132.788 
7 *748:17 *894:trimTC[0] 8.49942 
*END

*D_NET *749 0.30242
*CONN
*I *894:trimTC[1] I *D CF_BGR
*I *897:analog_ctrl[65] O *D soc_sys
*CAP
1 *894:trimTC[1] 0.000224184
2 *897:analog_ctrl[65] 0.000367503
3 *749:17 0.00961019
4 *749:13 0.0329819
5 *749:11 0.0235959
6 *749:9 0.0215789
7 *749:7 0.0219464
8 *749:7 *750:7 0.00036312
9 *749:7 *753:7 0
10 *749:9 *750:9 0.063799
11 *749:9 *754:9 0.0248557
12 *749:13 *750:13 0
13 *749:13 *782:17 0.0710344
14 *894:trimTC[0] *894:trimTC[1] 0.00019825
15 *24:13 *894:trimTC[1] 0.000176009
16 *44:13 *749:17 0
17 *44:21 *749:17 0.0204839
18 *103:39 *749:9 0.0104445
19 *712:9 *749:9 0
20 *748:7 *749:7 0.000389377
21 *748:17 *749:17 0.000370809
*RES
1 *897:analog_ctrl[65] *749:7 4.69467 
2 *749:7 *749:9 802.768 
3 *749:9 *749:11 3.41 
4 *749:11 *749:13 110.85 
5 *749:13 *749:17 47.8814 
6 *749:17 *894:trimTC[1] 9.68811 
*END

*D_NET *750 0.272925
*CONN
*I *894:trimTC[2] I *D CF_BGR
*I *897:analog_ctrl[66] O *D soc_sys
*CAP
1 *894:trimTC[2] 6.94966e-05
2 *897:analog_ctrl[66] 0.000361907
3 *750:17 0.00884039
4 *750:13 0.0472042
5 *750:11 0.0384333
6 *750:9 0.013889
7 *750:7 0.0142509
8 *894:trimTC[2] *894:trimTC[3] 7.51185e-05
9 *894:trimTC[2] *751:21 4.13785e-05
10 *750:7 *751:7 0.000341521
11 *750:9 *751:9 0.0641378
12 *750:13 *782:17 0
13 *750:17 *894:trimTC[4] 0.00133458
14 *750:17 *751:21 0.0197828
15 *894:trimTC[0] *894:trimTC[2] 0
16 *712:9 *750:9 0
17 *748:17 *750:17 0
18 *749:7 *750:7 0.00036312
19 *749:9 *750:9 0.063799
20 *749:13 *750:13 0
*RES
1 *897:analog_ctrl[66] *750:7 4.6226 
2 *750:7 *750:9 807.018 
3 *750:9 *750:11 3.41 
4 *750:11 *750:13 111.93 
5 *750:13 *750:17 47.0291 
6 *750:17 *894:trimTC[2] 8.16572 
*END

*D_NET *751 0.270859
*CONN
*I *894:trimTC[3] I *D CF_BGR
*I *897:analog_ctrl[67] O *D soc_sys
*CAP
1 *894:trimTC[3] 8.83141e-05
2 *897:analog_ctrl[67] 0.000338175
3 *751:21 0.00882852
4 *751:13 0.0459161
5 *751:11 0.0371759
6 *751:9 0.014182
7 *751:7 0.0145202
8 *894:trimTC[3] *894:trimTC[4] 0
9 *751:7 *752:7 0.000319922
10 *751:7 *753:7 6.43714e-06
11 *751:9 *752:9 0.0650103
12 *894:trimTC[2] *894:trimTC[3] 7.51185e-05
13 *894:trimTC[2] *751:21 4.13785e-05
14 *24:13 *751:21 9.43287e-05
15 *712:9 *751:9 0
16 *748:17 *751:21 0
17 *750:7 *751:7 0.000341521
18 *750:9 *751:9 0.0641378
19 *750:17 *751:21 0.0197828
*RES
1 *897:analog_ctrl[67] *751:7 4.55053 
2 *751:7 *751:9 817.946 
3 *751:9 *751:11 3.41 
4 *751:11 *751:13 111.714 
5 *751:13 *751:21 48.5012 
6 *751:21 *894:trimTC[3] 5.67786 
*END

*D_NET *752 0.224306
*CONN
*I *894:trimTC[4] I *D CF_BGR
*I *897:analog_ctrl[68] O *D soc_sys
*CAP
1 *894:trimTC[4] 0.00775341
2 *897:analog_ctrl[68] 0.000322231
3 *752:13 0.0451262
4 *752:11 0.0373728
5 *752:9 0.0295739
6 *752:7 0.0298961
7 *752:7 *753:7 0.000301053
8 *894:trimTC[3] *894:trimTC[4] 0
9 *24:13 *894:trimTC[4] 2.48858e-05
10 *104:26 *752:9 0
11 *712:9 *752:9 0.00727097
12 *750:17 *894:trimTC[4] 0.00133458
13 *751:7 *752:7 0.000319922
14 *751:9 *752:9 0.0650103
*RES
1 *897:analog_ctrl[68] *752:7 4.47847 
2 *752:7 *752:9 915.089 
3 *752:9 *752:11 3.41 
4 *752:11 *752:13 112.363 
5 *752:13 *894:trimTC[4] 36.8562 
*END

*D_NET *753 0.303809
*CONN
*I *894:trimTC[5] I *D CF_BGR
*I *897:analog_ctrl[69] O *D soc_sys
*CAP
1 *894:trimTC[5] 0.000459301
2 *897:analog_ctrl[69] 0.00274393
3 *753:13 0.0193723
4 *753:11 0.018913
5 *753:9 0.0287435
6 *753:7 0.0314875
7 *894:trimTC[5] *894:trimTC[6] 0.000543646
8 *894:trimTC[5] *758:29 0.00010167
9 *894:trimTC[5] *762:21 4.31981e-05
10 *753:7 *755:7 0.00218714
11 *753:9 *757:19 4.15161e-05
12 *753:9 *758:25 0.0798726
13 *753:9 *772:17 0.0131446
14 *753:9 *850:13 0.00127168
15 *753:9 *858:9 0.00549511
16 *753:13 *755:13 0.0395505
17 *753:13 *756:13 0.0128877
18 *753:13 *760:37 0.0355632
19 *657:21 *753:9 0.0034445
20 *675:9 *753:9 0
21 *686:9 *753:9 0.00763541
22 *748:7 *753:7 0
23 *749:7 *753:7 0
24 *751:7 *753:7 6.43714e-06
25 *752:7 *753:7 0.000301053
*RES
1 *897:analog_ctrl[69] *753:7 10.9645 
2 *753:7 *753:9 1062.02 
3 *753:9 *753:11 3.41 
4 *753:11 *753:13 118.849 
5 *753:13 *894:trimTC[5] 12.8067 
*END

*D_NET *754 0.288028
*CONN
*I *895:clk1_boostr I *D CF_BUF_HIZ
*I *897:analog_ctrl[6] O *D soc_sys
*CAP
1 *895:clk1_boostr 0.000325707
2 *897:analog_ctrl[6] 0.000406041
3 *754:17 0.0099515
4 *754:15 0.00962579
5 *754:13 0.0316053
6 *754:11 0.0316053
7 *754:9 0.00798258
8 *754:7 0.00838862
9 *754:7 *776:11 3.84566e-05
10 *754:9 *789:9 0
11 *895:clk2_boost *895:clk1_boostr 7.00397e-05
12 *895:vinp_n *895:clk1_boostr 0.000134594
13 *895:vinn_na *895:clk1_boostr 0
14 *895:e_na_boost *895:clk1_boostr 5.42998e-05
15 *895:e_n_boost *895:clk1_boostr 9.86169e-05
16 *70:18 *754:13 0.0301712
17 *103:39 *754:9 0.00203969
18 *105:29 *754:13 0.00251425
19 *528:15 *754:13 0.0366588
20 *676:7 *754:7 0
21 *676:9 *754:9 0
22 *687:7 *754:7 0
23 *712:9 *754:9 0
24 *717:9 *754:9 0.000750693
25 *722:13 *754:13 0.0390213
26 *732:29 *895:clk1_boostr 1.86375e-05
27 *743:7 *754:7 0.000425444
28 *743:9 *754:9 0.0289213
29 *743:17 *754:17 0.0223645
30 *749:9 *754:9 0.0248557
*RES
1 *897:analog_ctrl[6] *754:7 4.76673 
2 *754:7 *754:9 383.232 
3 *754:9 *754:11 3.41 
4 *754:11 *754:13 159.35 
5 *754:13 *754:15 3.41 
6 *754:15 *754:17 46.7086 
7 *754:17 *895:clk1_boostr 17.3603 
*END

*D_NET *755 0.358277
*CONN
*I *894:trimTC[6] I *D CF_BGR
*I *897:analog_ctrl[70] O *D soc_sys
*CAP
1 *894:trimTC[6] 0.000588473
2 *897:analog_ctrl[70] 0.00306586
3 *755:13 0.0172457
4 *755:11 0.0166572
5 *755:9 0.0416006
6 *755:7 0.0446664
7 *894:trimTC[6] *758:29 8.84276e-05
8 *894:trimTC[6] *762:21 0.000380167
9 *755:7 *756:7 0.00278161
10 *755:9 *783:17 0.0260476
11 *755:9 *844:17 0.000902396
12 *755:9 *861:9 0.00511249
13 *755:13 *756:13 0.000188174
14 *755:13 *760:37 2.73493e-05
15 *755:13 *781:21 0.0744589
16 *755:13 *783:21 0.000887461
17 *894:trimTC[5] *894:trimTC[6] 0.000543646
18 *40:13 *755:9 0
19 *710:9 *755:9 0.047501
20 *720:9 *755:9 0.00116558
21 *726:9 *755:9 0
22 *729:9 *755:9 0.0202069
23 *730:9 *755:9 0.0124237
24 *753:7 *755:7 0.00218714
25 *753:13 *755:13 0.0395505
*RES
1 *897:analog_ctrl[70] *755:7 13.0904 
2 *755:7 *755:9 185.948 
3 *755:9 *755:11 3.41 
4 *755:11 *755:13 121.119 
5 *755:13 *894:trimTC[6] 12.0701 
*END

*D_NET *756 0.35475
*CONN
*I *894:trimCurr[0] I *D CF_BGR
*I *897:analog_ctrl[71] O *D soc_sys
*CAP
1 *894:trimCurr[0] 0.000154085
2 *897:analog_ctrl[71] 0.00425636
3 *756:13 0.0336028
4 *756:11 0.0334487
5 *756:9 0.0498825
6 *756:7 0.0541388
7 *894:trimCurr[0] *894:trimCurr[4] 0.000153948
8 *894:trimCurr[0] *894:trimCurr[3] 0.000299442
9 *756:7 *757:7 0.00221837
10 *756:7 *760:7 0
11 *756:9 *780:9 0.0863384
12 *756:9 *800:9 0.00123769
13 *756:9 *814:9 0.00146759
14 *756:13 *894:CurrAbsTrim[0] 0
15 *756:13 *894:pd 1.33388e-05
16 *756:13 *758:29 0
17 *756:13 *759:37 0.0549909
18 *756:13 *760:37 0.00180525
19 *756:13 *762:21 0.0136902
20 *725:9 *756:9 0.00119413
21 *753:13 *756:13 0.0128877
22 *755:7 *756:7 0.00278161
23 *755:13 *756:13 0.000188174
*RES
1 *897:analog_ctrl[71] *756:7 15.5407 
2 *756:7 *756:9 186.267 
3 *756:9 *756:11 3.41 
4 *756:11 *756:13 159.603 
5 *756:13 *894:trimCurr[0] 4.13772 
*END

*D_NET *757 0.343174
*CONN
*I *894:trimCurr[1] I *D CF_BGR
*I *897:analog_ctrl[72] O *D soc_sys
*CAP
1 *894:trimCurr[1] 0.000437393
2 *897:analog_ctrl[72] 0.00272916
3 *757:33 0.0290375
4 *757:31 0.0286001
5 *757:29 0.0253492
6 *757:27 0.025497
7 *757:21 0.00281182
8 *757:19 0.00279801
9 *757:9 0.0126175
10 *757:7 0.0152127
11 *894:trimCurr[1] *894:CurrAbsTrim[5] 0
12 *894:trimCurr[1] *894:trimCurr[5] 0.000142029
13 *894:trimCurr[1] *894:CurrAbsTrim[4] 0
14 *894:trimCurr[1] *894:mux2sel 0.000272957
15 *894:trimCurr[1] *894:mux1sel[0] 0.00107375
16 *894:trimCurr[1] *894:inl_ctrl[1] 0.00166542
17 *757:7 *758:23 8.81838e-05
18 *757:7 *759:7 0.000345546
19 *757:7 *760:7 0
20 *757:9 *758:23 0.00415259
21 *757:9 *772:17 0.0166595
22 *757:9 *850:13 0.000549137
23 *757:9 *858:9 0.000594195
24 *757:9 *887:9 0.000394864
25 *757:9 *888:11 0.00213063
26 *757:21 *759:21 0.0117663
27 *757:21 *760:21 0.0142723
28 *757:27 *759:27 0
29 *757:27 *760:29 0.00011
30 *757:29 *759:31 0.0277214
31 *757:29 *760:29 0.000147145
32 *757:29 *771:15 0.0087175
33 *757:33 *894:mux1sel[0] 1.49122e-05
34 *757:33 *770:25 0.0633855
35 *757:33 *782:21 0
36 *73:21 *757:29 0.015816
37 *78:21 *757:29 0
38 *78:29 *757:21 0
39 *78:29 *757:29 0.00101165
40 *651:21 *757:9 0
41 *657:21 *757:9 0.00213282
42 *665:13 *757:21 0.00222552
43 *665:13 *757:29 0.00985332
44 *686:9 *757:19 2.13884e-05
45 *696:9 *757:9 0.00239475
46 *701:15 *757:29 4.73891e-05
47 *704:9 *757:9 0.00161946
48 *714:27 *757:19 5.85763e-05
49 *714:27 *757:29 0.000319056
50 *715:9 *757:9 0.00149665
51 *718:9 *757:9 0
52 *728:9 *757:9 0.000149758
53 *737:9 *757:9 0.00447372
54 *753:9 *757:19 4.15161e-05
55 *756:7 *757:7 0.00221837
*RES
1 *897:analog_ctrl[72] *757:7 11.0726 
2 *757:7 *757:9 48.4131 
3 *757:9 *757:19 12.1275 
4 *757:19 *757:21 136.071 
5 *757:21 *757:27 10.6154 
6 *757:27 *757:29 128.073 
7 *757:29 *757:31 3.41 
8 *757:31 *757:33 134.812 
9 *757:33 *894:trimCurr[1] 12.3852 
*END

*D_NET *758 0.379176
*CONN
*I *894:trimCurr[2] I *D CF_BGR
*I *897:analog_ctrl[73] O *D soc_sys
*CAP
1 *894:trimCurr[2] 0.000119265
2 *897:analog_ctrl[73] 0.00515434
3 *758:29 0.0205095
4 *758:27 0.0203902
5 *758:25 0.0184246
6 *758:23 0.0235789
7 *894:trimCurr[2] *894:CurrAbsTrim[0] 0
8 *894:trimCurr[2] *894:CurrAbsTrim[1] 0
9 *758:23 *759:7 9.07029e-05
10 *758:23 *778:7 1.86412e-05
11 *758:23 *779:7 0.00149221
12 *758:23 *780:7 0.00448542
13 *758:23 *781:15 0.000129624
14 *758:23 *855:7 0.000127359
15 *758:23 *888:11 0.00415259
16 *758:25 *772:17 0.00962652
17 *758:29 *894:finetune 9.53747e-06
18 *758:29 *894:CurrAbsTrim[0] 0.0018277
19 *758:29 *762:21 0.0260274
20 *758:29 *763:13 6.59103e-06
21 *758:29 *764:13 0.095924
22 *758:29 *778:13 0.00200029
23 *894:trimTC[6] *758:29 8.84276e-05
24 *894:trimTC[5] *758:29 0.00010167
25 *40:19 *758:23 0.00148102
26 *118:57 *758:23 0.000482869
27 *657:21 *758:25 0.0577044
28 *699:43 *758:23 0.000617749
29 *704:9 *758:23 0.000232063
30 *715:9 *758:23 0.000259591
31 *715:9 *758:25 0
32 *753:9 *758:25 0.0798726
33 *756:13 *758:29 0
34 *757:7 *758:23 8.81838e-05
35 *757:9 *758:23 0.00415259
*RES
1 *897:analog_ctrl[73] *758:23 38.1154 
2 *758:23 *758:25 990.982 
3 *758:25 *758:27 3.41 
4 *758:27 *758:29 155.279 
5 *758:29 *894:trimCurr[2] 5.66446 
*END

*D_NET *759 0.367713
*CONN
*I *894:trimCurr[3] I *D CF_BGR
*I *897:analog_ctrl[74] O *D soc_sys
*CAP
1 *894:trimCurr[3] 0.000325806
2 *897:analog_ctrl[74] 0.00101625
3 *759:37 0.00975189
4 *759:35 0.00942609
5 *759:33 0.0443794
6 *759:31 0.0486288
7 *759:27 0.00435654
8 *759:21 0.00414917
9 *759:19 0.00412447
10 *759:9 0.0105809
11 *759:7 0.0115147
12 *894:trimCurr[3] *894:CurrAbsTrim[0] 0.00016697
13 *759:7 *760:7 0.00104276
14 *759:9 *762:17 0
15 *759:31 *760:29 0.0243308
16 *759:31 *771:15 0.00349623
17 *759:37 *760:37 0.0549942
18 *892:dft_outc[1] *759:33 0
19 *894:trimCurr[0] *894:trimCurr[3] 0.000299442
20 *78:29 *759:21 0
21 *665:9 *759:9 0.0222318
22 *665:13 *759:19 4.8817e-05
23 *665:13 *759:31 0.000908037
24 *670:9 *759:19 1.90936e-05
25 *671:21 *759:21 0.00206388
26 *687:9 *759:9 0.00184551
27 *708:9 *759:9 0.00217568
28 *711:19 *759:19 3.50637e-05
29 *714:27 *759:19 0.000135743
30 *722:17 *759:33 0
31 *723:9 *759:9 0.00127156
32 *727:17 *759:33 0
33 *739:11 *759:9 0.00947878
34 *756:13 *759:37 0.0549909
35 *757:7 *759:7 0.000345546
36 *757:21 *759:21 0.0117663
37 *757:27 *759:27 0
38 *757:29 *759:31 0.0277214
39 *758:23 *759:7 9.07029e-05
*RES
1 *897:analog_ctrl[74] *759:7 6.74857 
2 *759:7 *759:9 48.0935 
3 *759:9 *759:19 11.824 
4 *759:19 *759:21 114.304 
5 *759:21 *759:27 9.70464 
6 *759:27 *759:31 46.661 
7 *759:31 *759:33 137.155 
8 *759:33 *759:35 3.41 
9 *759:35 *759:37 87.3918 
10 *759:37 *894:trimCurr[3] 11.2867 
*END

*D_NET *760 0.368448
*CONN
*I *894:trimCurr[4] I *D CF_BGR
*I *897:analog_ctrl[75] O *D soc_sys
*CAP
1 *894:trimCurr[4] 0.000198191
2 *897:analog_ctrl[75] 0.00416372
3 *760:37 0.012115
4 *760:35 0.0119169
5 *760:33 0.0450385
6 *760:31 0.0450385
7 *760:29 0.00437635
8 *760:21 0.0102184
9 *760:19 0.00588823
10 *760:9 0.00677462
11 *760:7 0.0108922
12 *894:trimCurr[4] *894:CurrAbsTrim[0] 2.27843e-05
13 *894:trimCurr[4] *894:inl_ctrl[0] 0
14 *760:7 *761:15 0.000807332
15 *760:7 *762:15 2.08001e-05
16 *760:29 *771:15 0.00475302
17 *760:33 *784:23 0
18 *760:37 *894:inl_ctrl[0] 0.00462416
19 *760:37 *781:21 0.0020211
20 *894:trimCurr[0] *894:trimCurr[4] 0.000153948
21 *20:25 *760:33 0.00237353
22 *78:29 *760:21 0
23 *665:13 *760:21 0.00412776
24 *665:13 *760:29 0.0010869
25 *671:21 *760:29 0.0122766
26 *694:9 *760:19 1.94879e-05
27 *701:15 *760:29 9.45697e-05
28 *702:9 *760:9 0.000707255
29 *702:13 *760:9 0.00172718
30 *702:13 *760:19 1.94879e-05
31 *702:23 *760:29 0.00018355
32 *710:9 *760:9 0.0224893
33 *714:27 *760:19 2.35215e-05
34 *726:9 *760:9 0
35 *738:9 *760:9 0.0220026
36 *753:13 *760:37 0.0355632
37 *755:13 *760:37 2.73493e-05
38 *756:7 *760:7 0
39 *756:13 *760:37 0.00180525
40 *757:7 *760:7 0
41 *757:21 *760:21 0.0142723
42 *757:27 *760:29 0.00011
43 *757:29 *760:29 0.000147145
44 *759:7 *760:7 0.00104276
45 *759:31 *760:29 0.0243308
46 *759:37 *760:37 0.0549942
*RES
1 *897:analog_ctrl[75] *760:7 13.3787 
2 *760:7 *760:9 47.7739 
3 *760:9 *760:19 11.6798 
4 *760:19 *760:21 150.036 
5 *760:21 *760:29 48.1992 
6 *760:29 *760:31 3.41 
7 *760:31 *760:33 137.155 
8 *760:33 *760:35 3.41 
9 *760:35 *760:37 93.013 
10 *760:37 *894:trimCurr[4] 4.26305 
*END

*D_NET *761 0.363367
*CONN
*I *894:trimCurr[5] I *D CF_BGR
*I *897:analog_ctrl[76] O *D soc_sys
*CAP
1 *894:trimCurr[5] 0.0092247
2 *897:analog_ctrl[76] 0.0063059
3 *761:25 0.0465345
4 *761:23 0.0373098
5 *761:21 0.0147426
6 *761:19 0.0147426
7 *761:17 0.00643577
8 *761:15 0.0127417
9 *894:trimCurr[5] *894:CurrAbsTrim[4] 2.05803e-05
10 *894:trimCurr[5] *894:mux2sel 2.82126e-05
11 *894:trimCurr[5] *894:inl_ctrl[1] 6.61476e-05
12 *894:trimCurr[5] *894:inl_ctrl[4] 0.000681858
13 *761:15 *897:sram_dat_i[12] 0.000781446
14 *761:15 *762:15 0.00641774
15 *761:15 *771:11 0.00815849
16 *761:15 *826:21 0.000160692
17 *761:15 *862:7 0.000778557
18 *761:17 *770:17 0.00360078
19 *761:17 *795:9 0.000730158
20 *761:17 *797:9 0.00130297
21 *761:17 *808:9 0.0014869
22 *761:17 *813:11 0.000128096
23 *761:21 *769:13 0.0828813
24 *761:21 *770:21 0.000108891
25 *761:25 *769:17 0.0341209
26 *894:trimCurr[1] *894:trimCurr[5] 0.000142029
27 *103:39 *761:15 0
28 *653:14 *761:21 0
29 *665:9 *761:15 0.000355026
30 *673:17 *761:17 0
31 *733:9 *761:15 0.000135968
32 *734:9 *761:15 0.000121549
33 *734:15 *761:21 0
34 *739:11 *761:17 0.000665322
35 *745:9 *761:15 0.0002652
36 *748:13 *761:21 0.0713832
37 *760:7 *761:15 0.000807332
*RES
1 *897:analog_ctrl[76] *761:15 33.9117 
2 *761:15 *761:17 173.768 
3 *761:17 *761:19 3.41 
4 *761:19 *761:21 129.875 
5 *761:21 *761:23 3.41 
6 *761:23 *761:25 133.746 
7 *761:25 *894:trimCurr[5] 13.9038 
*END

*D_NET *762 0.329948
*CONN
*I *894:CurrAbsTrim[0] I *D CF_BGR
*I *897:analog_ctrl[77] O *D soc_sys
*CAP
1 *894:CurrAbsTrim[0] 0.00136247
2 *897:analog_ctrl[77] 0.00391243
3 *762:21 0.0332406
4 *762:19 0.0318781
5 *762:17 0.0463206
6 *762:15 0.050233
7 *894:CurrAbsTrim[0] *894:pd 4.72259e-05
8 *762:15 *763:7 0.000641413
9 *762:15 *764:7 2.72155e-05
10 *762:15 *767:7 0
11 *762:15 *772:9 0.000160692
12 *762:15 *779:9 0.000143652
13 *762:15 *855:7 0.000966336
14 *762:15 *870:11 0.00095049
15 *762:17 *790:9 0.000280436
16 *762:21 *894:finetune 3.85572e-05
17 *894:trimCurr[4] *894:CurrAbsTrim[0] 2.27843e-05
18 *894:trimCurr[3] *894:CurrAbsTrim[0] 0.00016697
19 *894:trimCurr[2] *894:CurrAbsTrim[0] 0
20 *894:trimTC[6] *762:21 0.000380167
21 *894:trimTC[5] *762:21 4.31981e-05
22 *40:21 *762:15 0.000248178
23 *650:17 *762:17 0.0114349
24 *656:25 *762:17 0.0101228
25 *665:9 *762:15 0.00200295
26 *672:9 *762:17 0.0589892
27 *673:17 *762:17 0.0281186
28 *711:19 *762:17 0.000231261
29 *739:11 *762:17 0
30 *756:13 *894:CurrAbsTrim[0] 0
31 *756:13 *762:21 0.0136902
32 *758:29 *894:CurrAbsTrim[0] 0.0018277
33 *758:29 *762:21 0.0260274
34 *759:9 *762:17 0
35 *760:7 *762:15 2.08001e-05
36 *761:15 *762:15 0.00641774
*RES
1 *897:analog_ctrl[77] *762:15 26.7098 
2 *762:15 *762:17 173.483 
3 *762:17 *762:19 3.41 
4 *762:19 *762:21 147.135 
5 *762:21 *894:CurrAbsTrim[0] 9.87709 
*END

*D_NET *763 0.393333
*CONN
*I *894:CurrAbsTrim[1] I *D CF_BGR
*I *897:analog_ctrl[78] O *D soc_sys
*CAP
1 *894:CurrAbsTrim[1] 0.000190409
2 *897:analog_ctrl[78] 0.000635035
3 *763:13 0.0132643
4 *763:11 0.0130739
5 *763:9 0.0341199
6 *763:7 0.0347549
7 *894:CurrAbsTrim[1] *894:CurrAbsTrim[2] 0.000206747
8 *894:CurrAbsTrim[1] *894:CurrAbsTrim[3] 0.000109295
9 *763:7 *764:7 0.000641413
10 *763:9 *897:sram_dat_i[21] 5.04362e-05
11 *763:9 *897:sram_dat_i[24] 5.78709e-05
12 *763:9 *764:9 5.05693e-05
13 *763:9 *766:9 0.0857119
14 *763:9 *775:9 0.0186102
15 *763:9 *819:9 0
16 *763:13 *764:13 0.000155626
17 *763:13 *766:13 0.0958008
18 *763:13 *778:13 1.39702e-05
19 *763:13 *780:13 0.095238
20 *894:trimCurr[2] *894:CurrAbsTrim[1] 0
21 *67:231 *763:9 0
22 *67:249 *763:9 0
23 *673:9 *763:9 0
24 *717:9 *763:9 0
25 *733:9 *763:9 0
26 *748:9 *763:9 0
27 *758:29 *763:13 6.59103e-06
28 *762:15 *763:7 0.000641413
*RES
1 *897:analog_ctrl[78] *763:7 5.55947 
2 *763:7 *763:9 1061.41 
3 *763:9 *763:11 3.41 
4 *763:11 *763:13 149.153 
5 *763:13 *894:CurrAbsTrim[1] 8.69125 
*END

*D_NET *764 0.422803
*CONN
*I *894:CurrAbsTrim[2] I *D CF_BGR
*I *897:analog_ctrl[79] O *D soc_sys
*CAP
1 *894:CurrAbsTrim[2] 5.49114e-05
2 *897:analog_ctrl[79] 0.000658874
3 *764:13 0.0131285
4 *764:11 0.0130736
5 *764:9 0.0188565
6 *764:7 0.0195153
7 *894:CurrAbsTrim[2] *894:CurrAbsTrim[3] 0.000203934
8 *764:7 *766:7 0.000663904
9 *764:7 *767:7 1.36077e-05
10 *764:9 *766:9 0.0855204
11 *764:9 *767:9 0.067231
12 *764:9 *775:9 0.0114349
13 *764:13 *778:13 0.0953682
14 *894:CurrAbsTrim[1] *894:CurrAbsTrim[2] 0.000206747
15 *733:9 *764:9 7.3994e-05
16 *758:29 *764:13 0.095924
17 *762:15 *764:7 2.72155e-05
18 *763:7 *764:7 0.000641413
19 *763:9 *764:9 5.05693e-05
20 *763:13 *764:13 0.000155626
*RES
1 *897:analog_ctrl[79] *764:7 5.7036 
2 *764:7 *764:9 1057.77 
3 *764:9 *764:11 3.41 
4 *764:11 *764:13 149.225 
5 *764:13 *894:CurrAbsTrim[2] 6.18232 
*END

*D_NET *766 0.371866
*CONN
*I *894:CurrAbsTrim[3] I *D CF_BGR
*I *897:analog_ctrl[80] O *D soc_sys
*CAP
1 *894:CurrAbsTrim[3] 0.000221207
2 *897:analog_ctrl[80] 0.000658328
3 *766:13 0.0309603
4 *766:11 0.0307391
5 *766:9 0.0149067
6 *766:7 0.015565
7 *766:7 *767:7 0.000659977
8 *766:9 *775:9 0.0101229
9 *766:13 *780:13 2.24813e-05
10 *894:CurrAbsTrim[1] *894:CurrAbsTrim[3] 0.000109295
11 *894:CurrAbsTrim[2] *894:CurrAbsTrim[3] 0.000203934
12 *763:9 *766:9 0.0857119
13 *763:13 *766:13 0.0958008
14 *764:7 *766:7 0.000663904
15 *764:9 *766:9 0.0855204
*RES
1 *897:analog_ctrl[80] *766:7 5.63153 
2 *766:7 *766:9 1059.59 
3 *766:9 *766:11 3.41 
4 *766:11 *766:13 149.081 
5 *766:13 *894:CurrAbsTrim[3] 8.99929 
*END

*D_NET *767 0.299713
*CONN
*I *894:CurrAbsTrim[4] I *D CF_BGR
*I *897:analog_ctrl[81] O *D soc_sys
*CAP
1 *894:CurrAbsTrim[4] 0.00884259
2 *897:analog_ctrl[81] 0.000785622
3 *767:13 0.0587695
4 *767:11 0.0499269
5 *767:9 0.0130942
6 *767:7 0.0138799
7 *894:CurrAbsTrim[4] *894:CurrAbsTrim[5] 0.000125648
8 *894:CurrAbsTrim[4] *894:mux2sel 0.000107577
9 *894:CurrAbsTrim[4] *779:17 0.0171904
10 *894:CurrAbsTrim[4] *782:21 0
11 *767:7 *769:7 0.000294915
12 *767:9 *771:11 0.00181721
13 *767:9 *775:9 0.00755898
14 *767:9 *775:19 0.000131402
15 *767:9 *782:9 0.0546832
16 *767:9 *782:13 0.00386764
17 *767:13 *773:46 0
18 *894:trimCurr[5] *894:CurrAbsTrim[4] 2.05803e-05
19 *894:trimCurr[1] *894:CurrAbsTrim[4] 0
20 *733:9 *767:9 0.000712083
21 *762:15 *767:7 0
22 *764:7 *767:7 1.36077e-05
23 *764:9 *767:9 0.067231
24 *766:7 *767:7 0.000659977
*RES
1 *897:analog_ctrl[81] *767:7 5.77567 
2 *767:7 *767:9 831.911 
3 *767:9 *767:11 3.41 
4 *767:11 *767:13 148.829 
5 *767:13 *894:CurrAbsTrim[4] 47.7352 
*END

*D_NET *768 0.293404
*CONN
*I *894:CurrAbsTrim[5] I *D CF_BGR
*I *897:analog_ctrl[82] O *D soc_sys
*CAP
1 *894:CurrAbsTrim[5] 0.000391341
2 *897:analog_ctrl[82] 0.00186781
3 *768:18 0.0272201
4 *768:16 0.0268288
5 *768:14 0.0582659
6 *768:12 0.0601337
7 *894:CurrAbsTrim[5] *894:mux2sel 0.000124981
8 *768:14 *774:18 0
9 *768:18 *894:inl_ctrl[1] 0
10 *894:trimCurr[1] *894:CurrAbsTrim[5] 0
11 *894:CurrAbsTrim[4] *894:CurrAbsTrim[5] 0.000125648
12 *24:13 *768:18 0
13 *69:21 *768:18 0.00348151
14 *71:29 *768:18 0.0829088
15 *74:65 *768:12 2.01379e-05
16 *81:18 *768:18 0.031993
17 *118:57 *768:12 3.26217e-05
18 *632:16 *768:14 9.27738e-06
*RES
1 *897:analog_ctrl[82] *768:12 4.74533 
2 *768:12 *768:14 180.621 
3 *768:14 *768:16 3.41 
4 *768:16 *768:18 142.415 
5 *768:18 *894:CurrAbsTrim[5] 12.2448 
*END

*D_NET *769 0.370211
*CONN
*I *894:inl_ctrl[0] I *D CF_BGR
*I *897:analog_ctrl[83] O *D soc_sys
*CAP
1 *894:inl_ctrl[0] 0.00407244
2 *897:analog_ctrl[83] 0.00243024
3 *769:17 0.035383
4 *769:15 0.0313106
5 *769:13 0.0132414
6 *769:11 0.0132414
7 *769:9 0.00663914
8 *769:7 0.00906938
9 *894:inl_ctrl[0] *781:21 0.0127643
10 *769:7 *770:7 0.000846676
11 *769:9 *824:21 0.000397817
12 *769:9 *840:21 0.0122874
13 *769:13 *770:21 0.0827454
14 *894:trimCurr[4] *894:inl_ctrl[0] 0
15 *72:13 *769:13 0.000386194
16 *646:10 *769:9 0.000532017
17 *651:13 *769:9 0
18 *701:9 *769:9 0.0212425
19 *719:9 *769:9 0.000677363
20 *740:11 *769:9 0.0010226
21 *760:37 *894:inl_ctrl[0] 0.00462416
22 *761:21 *769:13 0.0828813
23 *761:25 *769:17 0.0341209
24 *767:7 *769:7 0.000294915
*RES
1 *897:analog_ctrl[83] *769:7 9.23487 
2 *769:7 *769:9 276.982 
3 *769:9 *769:11 3.41 
4 *769:11 *769:13 131.533 
5 *769:13 *769:15 3.41 
6 *769:15 *769:17 134.599 
7 *769:17 *894:inl_ctrl[0] 30.9146 
*END

*D_NET *770 0.402651
*CONN
*I *894:inl_ctrl[1] I *D CF_BGR
*I *897:analog_ctrl[84] O *D soc_sys
*CAP
1 *894:inl_ctrl[1] 0.0012229
2 *897:analog_ctrl[84] 0.000984317
3 *770:25 0.0201221
4 *770:23 0.0188992
5 *770:21 0.0179108
6 *770:19 0.0179108
7 *770:17 0.00327316
8 *770:15 0.00343824
9 *770:9 0.00334731
10 *770:7 0.00416655
11 *894:inl_ctrl[1] *894:mux1sel[0] 4.31981e-05
12 *894:inl_ctrl[1] *894:inl_ctrl[3] 2.7519e-05
13 *894:inl_ctrl[1] *894:inl_ctrl[2] 7.72357e-05
14 *894:inl_ctrl[1] *894:inl_ctrl[4] 0.000546859
15 *770:7 *771:7 0.000693779
16 *770:7 *772:7 4.03642e-05
17 *770:9 *772:9 0.00205382
18 *770:9 *779:9 0.000151779
19 *770:15 *793:7 0.000410046
20 *770:15 *862:7 0.000410046
21 *770:17 *808:9 0.00407374
22 *770:17 *813:11 0.000250323
23 *770:21 *779:13 0.0922463
24 *770:25 *894:mux1sel[0] 0.000825514
25 *894:trimCurr[5] *894:inl_ctrl[1] 6.61476e-05
26 *894:trimCurr[1] *894:inl_ctrl[1] 0.00166542
27 *26:17 *770:25 0.0381086
28 *40:21 *770:9 0.000740641
29 *72:13 *770:21 0.000268946
30 *647:25 *770:9 0
31 *665:9 *770:9 0.000262798
32 *670:9 *770:9 0.0021775
33 *671:9 *770:17 0.0125461
34 *676:17 *770:9 0.00165775
35 *723:9 *770:17 0.000643127
36 *739:11 *770:17 0.000700608
37 *757:33 *770:25 0.0633855
38 *761:17 *770:17 0.00360078
39 *761:21 *770:21 0.000108891
40 *768:18 *894:inl_ctrl[1] 0
41 *769:7 *770:7 0.000846676
42 *769:13 *770:21 0.0827454
*RES
1 *897:analog_ctrl[84] *770:7 6.42427 
2 *770:7 *770:9 103.946 
3 *770:9 *770:15 7.5156 
4 *770:15 *770:17 171.339 
5 *770:17 *770:19 3.41 
6 *770:19 *770:21 147.964 
7 *770:21 *770:23 3.41 
8 *770:23 *770:25 132.788 
9 *770:25 *894:inl_ctrl[1] 14.7685 
*END

*D_NET *771 0.337664
*CONN
*I *894:inl_ctrl[2] I *D CF_BGR
*I *897:analog_ctrl[85] O *D soc_sys
*CAP
1 *894:inl_ctrl[2] 0.00053472
2 *897:analog_ctrl[85] 0.000786965
3 *771:17 0.0322087
4 *771:15 0.102512
5 *771:11 0.0857824
6 *771:7 0.0157314
7 *894:inl_ctrl[2] *894:inl_ctrl[6] 4.73891e-05
8 *894:inl_ctrl[2] *894:inl_ctrl[3] 0.000615695
9 *894:inl_ctrl[2] *894:inl_ctrl[4] 0.000141873
10 *771:7 *772:7 0.000690041
11 *771:11 *775:9 0.0107976
12 *771:11 *779:9 0.000949235
13 *771:11 *782:9 0.00152506
14 *771:17 *775:33 0
15 *894:inl_ctrl[1] *894:inl_ctrl[2] 7.72357e-05
16 *25:17 *771:17 0.0213766
17 *69:17 *771:17 0.00920832
18 *103:39 *771:11 0
19 *665:9 *771:11 0
20 *665:13 *771:15 0.00609246
21 *671:21 *771:15 0.00599009
22 *676:17 *771:11 0.000949235
23 *701:15 *771:15 0.000948352
24 *702:23 *771:15 0.00170906
25 *711:19 *771:15 0.00238904
26 *714:27 *771:15 0.00179307
27 *716:15 *771:15 0.00229785
28 *733:9 *771:11 0.00152506
29 *734:9 *771:11 0.00181721
30 *745:9 *771:11 0.00153125
31 *757:29 *771:15 0.0087175
32 *759:31 *771:15 0.00349623
33 *760:29 *771:15 0.00475302
34 *761:15 *771:11 0.00815849
35 *767:9 *771:11 0.00181721
36 *770:7 *771:7 0.000693779
*RES
1 *897:analog_ctrl[85] *771:7 5.88377 
2 *771:7 *771:11 46.0233 
3 *771:11 *771:15 17.812 
4 *771:15 *771:17 135.557 
5 *771:17 *894:inl_ctrl[2] 9.8914 
*END

*D_NET *772 0.365337
*CONN
*I *894:inl_ctrl[3] I *D CF_BGR
*I *897:analog_ctrl[86] O *D soc_sys
*CAP
1 *894:inl_ctrl[3] 0.000704535
2 *897:analog_ctrl[86] 0.00111788
3 *772:29 0.0151111
4 *772:27 0.0678914
5 *772:17 0.0855794
6 *772:15 0.0331292
7 *772:9 0.00218265
8 *772:7 0.00226596
9 *894:inl_ctrl[3] *894:inl_ctrl[6] 4.98422e-05
10 *894:inl_ctrl[3] *894:inl_ctrl[5] 7.45289e-05
11 *894:inl_ctrl[3] *894:inl_ctrl[4] 0.000197503
12 *772:7 *775:7 0
13 *772:9 *779:9 0.00382846
14 *772:9 *826:21 0.000317172
15 *772:15 *897:sram_dat_i[1] 0.00279258
16 *772:15 *800:7 0.0027973
17 *772:17 *781:17 0.00581827
18 *772:27 *784:13 0.00502439
19 *772:27 *784:23 0.0370349
20 *894:inl_ctrl[1] *894:inl_ctrl[3] 2.7519e-05
21 *894:inl_ctrl[2] *894:inl_ctrl[3] 0.000615695
22 *25:17 *772:29 0.000286006
23 *40:21 *772:9 0.000546694
24 *69:17 *772:27 0.000683734
25 *69:17 *772:29 0.0282091
26 *648:35 *772:7 0
27 *657:21 *772:17 0.00728733
28 *686:9 *772:17 0.00273557
29 *696:9 *772:17 0.00673473
30 *699:43 *772:7 0.000384602
31 *704:9 *772:17 0.00476677
32 *715:9 *772:17 0.00476677
33 *718:9 *772:17 0
34 *753:9 *772:17 0.0131446
35 *757:9 *772:17 0.0166595
36 *758:25 *772:17 0.00962652
37 *762:15 *772:9 0.000160692
38 *770:7 *772:7 4.03642e-05
39 *770:9 *772:9 0.00205382
40 *771:7 *772:7 0.000690041
*RES
1 *897:analog_ctrl[86] *772:7 6.28013 
2 *772:7 *772:9 55.375 
3 *772:9 *772:15 11.5153 
4 *772:15 *772:17 108.178 
5 *772:17 *772:27 21.843 
6 *772:27 *772:29 60.1443 
7 *772:29 *894:inl_ctrl[3] 11.9847 
*END

*D_NET *773 0.27871
*CONN
*I *894:inl_ctrl[4] I *D CF_BGR
*I *897:analog_ctrl[87] O *D soc_sys
*CAP
1 *894:inl_ctrl[4] 0.0114447
2 *897:analog_ctrl[87] 0.00637024
3 *773:46 0.0606267
4 *773:44 0.049182
5 *773:42 0.0333428
6 *773:40 0.0397131
7 *894:inl_ctrl[4] *894:inl_ctrl[5] 0.000132368
8 *894:inl_ctrl[4] *779:17 0
9 *773:40 *774:16 0.000508676
10 *773:40 *776:13 0.0018846
11 *773:40 *777:9 0.00224009
12 *773:40 *787:11 0.00413717
13 *773:42 *776:13 0.00260076
14 *773:42 *776:31 0.00840626
15 *773:42 *777:9 0.0112698
16 *773:42 *787:11 0.00445104
17 *894:trimCurr[5] *894:inl_ctrl[4] 0.000681858
18 *894:inl_ctrl[1] *894:inl_ctrl[4] 0.000546859
19 *894:inl_ctrl[3] *894:inl_ctrl[4] 0.000197503
20 *894:inl_ctrl[2] *894:inl_ctrl[4] 0.000141873
21 *74:65 *773:40 0.00293494
22 *74:77 *773:40 0.00342812
23 *118:57 *773:40 0.00496494
24 *118:75 *773:42 0.0012226
25 *692:17 *773:42 0.00914638
26 *694:17 *773:42 0.00611131
27 *699:47 *773:40 0.000353777
28 *699:47 *773:42 0
29 *699:49 *773:42 0.0125075
30 *741:9 *773:40 0.000161619
31 *767:13 *773:46 0
*RES
1 *897:analog_ctrl[87] *773:40 36.4886 
2 *773:40 *773:42 115.137 
3 *773:42 *773:44 3.41 
4 *773:44 *773:46 146.919 
5 *773:46 *894:inl_ctrl[4] 49.1001 
*END

*D_NET *774 0.219833
*CONN
*I *894:inl_ctrl[5] I *D CF_BGR
*I *897:analog_ctrl[88] O *D soc_sys
*CAP
1 *894:inl_ctrl[5] 0.000992174
2 *897:analog_ctrl[88] 0.00163058
3 *774:22 0.0500077
4 *774:20 0.0490155
5 *774:18 0.0571903
6 *774:16 0.0588209
7 *894:inl_ctrl[5] *894:inl_ctrl[6] 0.000103147
8 *894:inl_ctrl[5] *775:33 0.00106939
9 *774:16 *776:13 0.000116715
10 *894:inl_ctrl[3] *894:inl_ctrl[5] 7.45289e-05
11 *894:inl_ctrl[4] *894:inl_ctrl[5] 0.000132368
12 *26:13 *774:22 0
13 *44:19 *774:22 0
14 *69:21 *774:22 0
15 *74:65 *774:16 0.000170855
16 *768:14 *774:18 0
17 *773:40 *774:16 0.000508676
*RES
1 *897:analog_ctrl[88] *774:16 6.17319 
2 *774:16 *774:18 177.212 
3 *774:18 *774:20 3.41 
4 *774:20 *774:22 146.342 
5 *774:22 *894:inl_ctrl[5] 16.0347 
*END

*D_NET *775 0.318817
*CONN
*I *894:inl_ctrl[6] I *D CF_BGR
*I *897:analog_ctrl[89] O *D soc_sys
*CAP
1 *894:inl_ctrl[6] 0.000111965
2 *897:analog_ctrl[89] 0.000859343
3 *775:33 0.0158343
4 *775:29 0.0492177
5 *775:27 0.0336682
6 *775:21 0.0112152
7 *775:19 0.0111687
8 *775:9 0.0448454
9 *775:7 0.0455783
10 *775:7 *778:7 8.03373e-05
11 *775:9 *782:9 0.00698361
12 *775:9 *782:13 0.00088635
13 *775:19 *782:13 0.000131402
14 *775:29 *782:17 0
15 *892:sample_width[0] *775:21 0.00309272
16 *894:inl_ctrl[5] *894:inl_ctrl[6] 0.000103147
17 *894:inl_ctrl[5] *775:33 0.00106939
18 *894:inl_ctrl[3] *894:inl_ctrl[6] 4.98422e-05
19 *894:inl_ctrl[2] *894:inl_ctrl[6] 4.73891e-05
20 *74:77 *775:9 8.82337e-05
21 *103:39 *775:9 0
22 *648:35 *775:7 0.000862615
23 *652:13 *775:21 0.000271379
24 *657:9 *775:21 0.00387811
25 *657:19 *775:19 0.000176804
26 *672:21 *775:21 0.014916
27 *672:37 *775:21 0.000650365
28 *695:13 *775:21 0
29 *695:23 *775:21 0.00374792
30 *696:13 *775:21 0
31 *696:23 *775:29 0.00057407
32 *699:43 *775:7 3.80666e-05
33 *723:13 *775:21 0.000522926
34 *725:13 *775:29 4.47593e-05
35 *728:35 *775:19 0.000176804
36 *728:55 *775:21 0.00315869
37 *730:13 *775:29 0.00559476
38 *745:9 *775:9 0.000516367
39 *763:9 *775:9 0.0186102
40 *764:9 *775:9 0.0114349
41 *766:9 *775:9 0.0101229
42 *767:9 *775:9 0.00755898
43 *767:9 *775:19 0.000131402
44 *771:11 *775:9 0.0107976
45 *771:17 *775:33 0
46 *772:7 *775:7 0
*RES
1 *897:analog_ctrl[89] *775:7 5.5955 
2 *775:7 *775:9 134.279 
3 *775:9 *775:19 13.4139 
4 *775:19 *775:21 297.482 
5 *775:21 *775:27 10.6154 
6 *775:27 *775:29 99.6071 
7 *775:29 *775:33 48.6271 
8 *775:33 *894:inl_ctrl[6] 9.22 
*END

*D_NET *776 0.260618
*CONN
*I *892:pd I *D CF_ADC_SAR12
*I *893:pd I *D CF_ADC_SAR12_sar_refs
*I *897:analog_ctrl[8] O *D soc_sys
*CAP
1 *892:pd 0.000358527
2 *893:pd 0.00757424
3 *897:analog_ctrl[8] 0.000252337
4 *776:35 0.0104829
5 *776:33 0.0101244
6 *776:31 0.0129063
7 *776:13 0.0318582
8 *776:11 0.0116299
9 *893:pd *893:pd_ana 0.0243022
10 *776:11 *787:9 0.000198638
11 *776:11 *787:11 0
12 *776:13 *777:9 0.0273371
13 *776:13 *787:11 0.00446243
14 *776:31 *777:9 0.0342698
15 *892:sample_width[1] *776:35 3.57943e-05
16 *892:sel_csel_dft[0] *776:35 0.000220289
17 *892:sof *776:35 0.00474837
18 *892:test_sea *776:35 0.00234157
19 *892:iso_en *776:35 0.00433255
20 *892:vdda *776:35 2.48858e-05
21 *892:cap_trim[2] *892:pd 0.000246394
22 *892:cap_trim[2] *776:35 0.027609
23 *892:dft_outc[1] *892:pd 0.000143007
24 *892:dft_outc[1] *776:35 0.0138252
25 *892:dft_outc[0] *892:pd 1.79516e-05
26 *893:hiz *893:pd 0.000118283
27 *893:sw_start *893:pd 0.0034715
28 *67:243 *776:13 0.00140433
29 *112:37 *776:11 0
30 *118:57 *776:13 0.00283233
31 *118:75 *776:13 0
32 *118:75 *776:31 0
33 *646:8 *776:35 0.00031002
34 *647:23 *776:35 0.000312957
35 *648:19 *776:35 0.00118621
36 *648:37 *776:11 0
37 *676:7 *776:11 1.36077e-05
38 *699:19 *776:11 0
39 *699:21 *776:13 0.00758272
40 *700:11 *776:13 0
41 *726:13 *892:pd 0.000648966
42 *741:9 *776:13 0.000388296
43 *754:7 *776:11 3.84566e-05
44 *773:40 *776:13 0.0018846
45 *773:42 *776:13 0.00260076
46 *773:42 *776:31 0.00840626
47 *774:16 *776:13 0.000116715
*RES
1 *897:analog_ctrl[8] *776:11 8.56009 
2 *776:11 *776:13 434.232 
3 *776:13 *893:pd 46.4163 
4 *776:13 *776:31 420.875 
5 *776:31 *776:33 3.41 
6 *776:33 *776:35 56.9436 
7 *776:35 *892:pd 12.3809 
*END

*D_NET *777 0.289592
*CONN
*I *894:mux1sel[0] I *D CF_BGR
*I *897:analog_ctrl[90] O *D soc_sys
*CAP
1 *894:mux1sel[0] 0.00345786
2 *897:analog_ctrl[90] 2.82141e-05
3 *777:13 0.0544048
4 *777:11 0.050947
5 *777:9 0.0193208
6 *777:7 0.019349
7 *894:mux1sel[0] *894:mux2sel 0.000152188
8 *894:mux1sel[0] *894:pd_ibg 0.000574938
9 *894:mux1sel[0] *784:25 0
10 *777:9 *787:11 0.0272907
11 *894:trimCurr[1] *894:mux1sel[0] 0.00107375
12 *894:inl_ctrl[1] *894:mux1sel[0] 4.31981e-05
13 *26:17 *894:mux1sel[0] 0.00522661
14 *118:57 *777:9 0.000782751
15 *118:75 *777:9 0
16 *652:31 *777:9 1.5275e-05
17 *656:23 *777:9 0
18 *692:17 *777:9 0.00248245
19 *694:17 *777:9 0.0284852
20 *757:33 *894:mux1sel[0] 1.49122e-05
21 *770:25 *894:mux1sel[0] 0.000825514
22 *773:40 *777:9 0.00224009
23 *773:42 *777:9 0.0112698
24 *776:13 *777:9 0.0273371
25 *776:31 *777:9 0.0342698
*RES
1 *897:analog_ctrl[90] *777:7 3.46953 
2 *777:7 *777:9 944.232 
3 *777:9 *777:11 3.41 
4 *777:11 *777:13 143.64 
5 *777:13 *894:mux1sel[0] 29.0105 
*END

*D_NET *778 0.369174
*CONN
*I *894:mux1sel[1] I *D CF_BGR
*I *897:analog_ctrl[91] O *D soc_sys
*CAP
1 *894:mux1sel[1] 0.000170967
2 *897:analog_ctrl[91] 0.00457365
3 *778:13 0.0178229
4 *778:11 0.0176519
5 *778:9 0.0351772
6 *778:7 0.0397508
7 *894:mux1sel[1] *894:dft_sel 0.000364835
8 *778:7 *779:7 0.000798567
9 *778:7 *780:7 0.000138029
10 *778:9 *780:9 0
11 *778:9 *828:17 0.00194076
12 *778:13 *780:13 0.0578495
13 *40:19 *778:7 0.00490855
14 *648:35 *778:7 0.000874745
15 *721:9 *778:9 0.0243558
16 *724:9 *778:9 0.0632243
17 *725:9 *778:9 0.00208971
18 *758:23 *778:7 1.86412e-05
19 *758:29 *778:13 0.00200029
20 *763:13 *778:13 1.39702e-05
21 *764:13 *778:13 0.0953682
22 *775:7 *778:7 8.03373e-05
*RES
1 *897:analog_ctrl[91] *778:7 16.4055 
2 *778:7 *778:9 183.178 
3 *778:9 *778:11 3.41 
4 *778:11 *778:13 159.062 
5 *778:13 *894:mux1sel[1] 8.07964 
*END

*D_NET *779 0.36663
*CONN
*I *894:mux2sel I *D CF_BGR
*I *897:analog_ctrl[92] O *D soc_sys
*CAP
1 *894:mux2sel 0.000167384
2 *897:analog_ctrl[92] 0.000815412
3 *779:17 0.0388661
4 *779:15 0.0386987
5 *779:13 0.0175081
6 *779:11 0.0175081
7 *779:9 0.00529348
8 *779:7 0.00610889
9 *779:7 *780:7 6.93702e-05
10 *779:9 *826:21 0.00761229
11 *894:CurrAbsTrim[5] *894:mux2sel 0.000124981
12 *894:trimCurr[5] *894:mux2sel 2.82126e-05
13 *894:trimCurr[1] *894:mux2sel 0.000272957
14 *894:CurrAbsTrim[4] *894:mux2sel 0.000107577
15 *894:CurrAbsTrim[4] *779:17 0.0171904
16 *894:mux1sel[0] *894:mux2sel 0.000152188
17 *894:inl_ctrl[4] *779:17 0
18 *70:16 *779:17 0
19 *72:13 *779:13 0.0936855
20 *670:9 *779:9 0
21 *676:17 *779:9 0.0154719
22 *745:9 *779:9 0.00733866
23 *758:23 *779:7 0.00149221
24 *762:15 *779:9 0.000143652
25 *770:9 *779:9 0.000151779
26 *770:21 *779:13 0.0922463
27 *771:11 *779:9 0.000949235
28 *772:9 *779:9 0.00382846
29 *778:7 *779:7 0.000798567
*RES
1 *897:analog_ctrl[92] *779:7 6.20807 
2 *779:7 *779:9 264.839 
3 *779:9 *779:11 3.41 
4 *779:11 *779:13 149.405 
5 *779:13 *779:15 3.41 
6 *779:15 *779:17 133.107 
7 *779:17 *894:mux2sel 9.66515 
*END

*D_NET *780 0.41182
*CONN
*I *894:dft_sel I *D CF_BGR
*I *897:analog_ctrl[93] O *D soc_sys
*CAP
1 *894:dft_sel 0.000224759
2 *897:analog_ctrl[93] 0.00364522
3 *780:13 0.0181636
4 *780:11 0.0179388
5 *780:9 0.0255467
6 *780:7 0.0291919
7 *894:dft_sel *894:pd 2.24541e-05
8 *780:7 *781:7 0.00078098
9 *780:9 *807:9 0.00188784
10 *780:9 *886:9 0.000994559
11 *894:mux1sel[1] *894:dft_sel 0.000364835
12 *40:19 *780:7 0.000582072
13 *67:217 *780:9 0.00107193
14 *725:9 *780:9 0.0635517
15 *741:23 *780:7 0.00371136
16 *756:9 *780:9 0.0863384
17 *758:23 *780:7 0.00448542
18 *763:13 *780:13 0.095238
19 *766:13 *780:13 2.24813e-05
20 *778:7 *780:7 0.000138029
21 *778:9 *780:9 0
22 *778:13 *780:13 0.0578495
23 *779:7 *780:7 6.93702e-05
*RES
1 *897:analog_ctrl[93] *780:7 15.6848 
2 *780:7 *780:9 182.965 
3 *780:9 *780:11 3.41 
4 *780:11 *780:13 158.269 
5 *780:13 *894:dft_sel 9.21357 
*END

*D_NET *781 0.370065
*CONN
*I *894:pd I *D CF_BGR
*I *897:analog_ctrl[94] O *D soc_sys
*CAP
1 *894:pd 0.000629666
2 *897:analog_ctrl[94] 0.00294346
3 *781:21 0.0222984
4 *781:19 0.0216687
5 *781:17 0.0439984
6 *781:15 0.0446097
7 *781:9 0.00197571
8 *781:7 0.00430791
9 *781:7 *782:7 0.000721566
10 *781:7 *783:15 0.000329769
11 *781:7 *784:7 0
12 *781:9 *784:9 0.00348303
13 *781:15 *855:7 0.000483703
14 *781:15 *870:11 0.0011861
15 *781:21 *783:21 0.073088
16 *894:CurrAbsTrim[0] *894:pd 4.72259e-05
17 *894:dft_sel *894:pd 2.24541e-05
18 *894:inl_ctrl[0] *781:21 0.0127643
19 *658:21 *781:17 0.000144792
20 *675:9 *781:17 0.00457876
21 *678:9 *781:9 0.000709692
22 *697:9 *781:17 0.0226335
23 *707:9 *781:9 0.000152961
24 *718:9 *781:17 0.0162452
25 *741:23 *781:7 0.00370909
26 *741:25 *781:17 0.00411092
27 *746:9 *781:9 0
28 *755:13 *781:21 0.0744589
29 *756:13 *894:pd 1.33388e-05
30 *758:23 *781:15 0.000129624
31 *760:37 *781:21 0.0020211
32 *772:17 *781:17 0.00581827
33 *780:7 *781:7 0.00078098
*RES
1 *897:analog_ctrl[94] *781:7 12.3337 
2 *781:7 *781:9 47.4821 
3 *781:9 *781:15 8.84883 
4 *781:15 *781:17 172.418 
5 *781:17 *781:19 3.41 
6 *781:19 *781:21 152.828 
7 *781:21 *894:pd 12.8674 
*END

*D_NET *782 0.307882
*CONN
*I *894:pd_ibg I *D CF_BGR
*I *897:analog_ctrl[95] O *D soc_sys
*CAP
1 *894:pd_ibg 0.000212597
2 *897:analog_ctrl[95] 0.000740612
3 *782:21 0.0144599
4 *782:17 0.0513388
5 *782:15 0.0370915
6 *782:13 0.00322079
7 *782:11 0.00324624
8 *782:9 0.0164564
9 *782:7 0.0171715
10 *782:7 *783:15 0.000718206
11 *892:sample_width[7] *782:17 0
12 *894:CurrAbsTrim[4] *782:21 0
13 *894:mux1sel[0] *894:pd_ibg 0.000574938
14 *670:9 *782:13 0
15 *730:13 *782:17 0
16 *733:9 *782:9 0.0217026
17 *745:9 *782:9 0.00111509
18 *749:13 *782:17 0.0710344
19 *750:13 *782:17 0
20 *757:33 *782:21 0
21 *767:9 *782:9 0.0546832
22 *767:9 *782:13 0.00386764
23 *771:11 *782:9 0.00152506
24 *775:9 *782:9 0.00698361
25 *775:9 *782:13 0.00088635
26 *775:19 *782:13 0.000131402
27 *775:29 *782:17 0
28 *781:7 *782:7 0.000721566
*RES
1 *897:analog_ctrl[95] *782:7 5.84773 
2 *782:7 *782:9 676.411 
3 *782:9 *782:11 0.535714 
4 *782:11 *782:13 89.4464 
5 *782:13 *782:15 3.41 
6 *782:15 *782:17 147.676 
7 *782:17 *782:21 48.0945 
8 *782:21 *894:pd_ibg 8.90832 
*END

*D_NET *783 0.306344
*CONN
*I *894:finetune I *D CF_BGR
*I *897:analog_ctrl[96] O *D soc_sys
*CAP
1 *894:finetune 0.000607484
2 *897:analog_ctrl[96] 0.00516397
3 *783:21 0.0280665
4 *783:19 0.027459
5 *783:17 0.0354393
6 *783:15 0.0406033
7 *783:15 *897:sram_dat_i[2] 0.00123772
8 *783:15 *784:7 0.00149663
9 *783:15 *811:7 1.71218e-05
10 *783:15 *829:21 0.000232063
11 *783:15 *856:7 0.00128144
12 *783:17 *853:13 0
13 *783:17 *890:9 0
14 *44:13 *894:finetune 0.00018768
15 *650:25 *783:15 0.00326584
16 *652:33 *783:15 0.00213547
17 *674:9 *783:17 0
18 *678:9 *783:17 0
19 *730:9 *783:17 0.0576455
20 *736:9 *783:15 0.000386122
21 *755:9 *783:17 0.0260476
22 *755:13 *783:21 0.000887461
23 *758:29 *894:finetune 9.53747e-06
24 *762:21 *894:finetune 3.85572e-05
25 *781:7 *783:15 0.000329769
26 *781:21 *783:21 0.073088
27 *782:7 *783:15 0.000718206
*RES
1 *897:analog_ctrl[96] *783:15 28.7762 
2 *783:15 *783:17 977.018 
3 *783:17 *783:19 3.41 
4 *783:19 *783:21 118.993 
5 *783:21 *894:finetune 12.3958 
*END

*D_NET *784 0.329514
*CONN
*I *894:en_startb I *D CF_BGR
*I *897:analog_ctrl[97] O *D soc_sys
*CAP
1 *894:en_startb 0.000237209
2 *897:analog_ctrl[97] 0.00391281
3 *784:25 0.0299256
4 *784:23 0.054052
5 *784:13 0.0460858
6 *784:11 0.0217222
7 *784:9 0.0212901
8 *784:7 0.0252029
9 *892:VPUMP *784:23 0
10 *894:mux1sel[0] *784:25 0
11 *77:17 *784:25 0.0281663
12 *678:9 *784:9 0
13 *707:9 *784:9 0.0518807
14 *760:33 *784:23 0
15 *772:27 *784:13 0.00502439
16 *772:27 *784:23 0.0370349
17 *781:7 *784:7 0
18 *781:9 *784:9 0.00348303
19 *783:15 *784:7 0.00149663
*RES
1 *897:analog_ctrl[97] *784:7 12.2617 
2 *784:7 *784:9 649.768 
3 *784:9 *784:11 3.41 
4 *784:11 *784:13 64.5106 
5 *784:13 *784:23 15.086 
6 *784:23 *784:25 110.096 
7 *784:25 *894:en_startb 12.6205 
*END

*D_NET *787 0.210756
*CONN
*I *893:pd_ana I *D CF_ADC_SAR12_sar_refs
*I *892:pd_ana I *D CF_ADC_SAR12
*I *897:analog_ctrl[9] O *D soc_sys
*CAP
1 *893:pd_ana 0.00547253
2 *892:pd_ana 0.00691939
3 *897:analog_ctrl[9] 0.000168872
4 *787:23 0.0297694
5 *787:21 0.0369535
6 *787:13 0.0195761
7 *787:11 0.0120226
8 *787:9 0.0121915
9 *892:vssa *892:pd_ana 0
10 *892:dft_inc[3] *892:pd_ana 0
11 *893:pd *893:pd_ana 0.0243022
12 *893:hiz *893:pd_ana 0.0106348
13 *893:sw_start *893:pd_ana 0
14 *118:57 *787:11 0.00122263
15 *648:37 *787:11 0.00796479
16 *676:7 *787:9 4.97112e-05
17 *692:15 *893:pd_ana 0.00284869
18 *692:15 *787:21 6.4194e-05
19 *692:17 *787:11 5.51718e-05
20 *773:40 *787:11 0.00413717
21 *773:42 *787:11 0.00445104
22 *776:11 *787:9 0.000198638
23 *776:11 *787:11 0
24 *776:13 *787:11 0.00446243
25 *777:9 *787:11 0.0272907
*RES
1 *897:analog_ctrl[9] *787:9 6.95231 
2 *787:9 *787:11 434.232 
3 *787:11 *787:13 3.41 
4 *787:13 *787:21 46.2098 
5 *787:21 *787:23 70.6786 
6 *787:23 *892:pd_ana 19.8673 
7 *787:13 *893:pd_ana 44.1275 
*END

*D_NET *788 0.097429
*CONN
*I *897:sram_ack_i I *D soc_sys
*I *898:wbs_ack_o O *D CF_SRAM_1024x32_wb_wrapper
*CAP
1 *897:sram_ack_i 0.00151072
2 *898:wbs_ack_o 0.0043863
3 *788:13 0.00615348
4 *788:11 0.00902905
5 *897:sram_ack_i *821:7 0.00127492
6 *788:11 *898:wbs_cyc_i 0
7 *788:11 *898:wbs_dat_i[11] 0.00130978
8 *788:11 *898:wbs_sel_i[1] 0.0121805
9 *788:11 *824:19 0.00136856
10 *788:11 *826:19 0.00129569
11 *788:11 *827:9 0.00247116
12 *788:11 *828:9 0.00236543
13 *788:11 *829:19 0.000656893
14 *788:11 *844:15 0.0107227
15 *788:11 *848:21 0.00544574
16 *788:13 *792:9 0
17 *788:13 *859:9 0.000567963
18 *788:13 *881:9 0.0188709
19 *898:wb_rst_i *788:11 0
20 *141:13 *788:11 6.17646e-05
21 *143:39 *788:11 0.00187178
22 *650:25 *788:13 0.0011011
23 *650:35 *788:13 1.66787e-05
24 *656:25 *788:13 0.0038003
25 *690:7 *897:sram_ack_i 0.00127492
26 *711:9 *788:13 0.00906095
27 *736:9 *788:13 0.000631653
*RES
1 *898:wbs_ack_o *788:11 48.4233 
2 *788:11 *788:13 248.446 
3 *788:13 *897:sram_ack_i 8.00973 
*END

*D_NET *789 0.0927288
*CONN
*I *898:wbs_adr_i[0] I *D CF_SRAM_1024x32_wb_wrapper
*I *897:sram_adr_o[0] O *D soc_sys
*CAP
1 *898:wbs_adr_i[0] 0.00445293
2 *897:sram_adr_o[0] 0.000176583
3 *789:9 0.0106633
4 *789:7 0.00638696
5 *898:wbs_adr_i[0] *898:wbs_adr_i[10] 0.0043925
6 *898:wbs_adr_i[0] *898:wbs_dat_i[0] 0
7 *898:wbs_adr_i[0] *898:wbs_dat_i[1] 5.44456e-05
8 *898:wbs_adr_i[0] *898:wbs_we_i 0
9 *898:wbs_adr_i[0] *791:19 2.14071e-05
10 *898:wbs_adr_i[0] *792:19 0.000907946
11 *898:wbs_adr_i[0] *795:19 0.00440356
12 *898:wbs_adr_i[0] *797:19 0.00207038
13 *898:wbs_adr_i[0] *822:11 0.0147369
14 *898:wbs_adr_i[0] *825:19 0.000220108
15 *898:wbs_adr_i[0] *833:11 0.000193149
16 *898:wbs_adr_i[0] *849:11 0.0122432
17 *789:7 *897:sram_dat_i[0] 0.000193493
18 *789:7 *891:7 0.000193493
19 *104:26 *789:9 0.0190301
20 *112:37 *789:9 4.22135e-06
21 *113:13 *898:wbs_adr_i[0] 0.000318687
22 *141:13 *898:wbs_adr_i[0] 0.000786819
23 *142:18 *898:wbs_adr_i[0] 0
24 *676:9 *789:9 0.0112787
25 *754:9 *789:9 0
*RES
1 *897:sram_adr_o[0] *789:7 4.04607 
2 *789:7 *789:9 248.446 
3 *789:9 *898:wbs_adr_i[0] 48.9711 
*END

*D_NET *790 0.119914
*CONN
*I *898:wbs_adr_i[10] I *D CF_SRAM_1024x32_wb_wrapper
*I *897:sram_adr_o[10] O *D soc_sys
*CAP
1 *898:wbs_adr_i[10] 0.0156439
2 *897:sram_adr_o[10] 0.00121078
3 *790:9 0.0336331
4 *790:7 0.0192
5 *898:wbs_adr_i[10] *898:wbs_dat_i[10] 0.000118461
6 *898:wbs_adr_i[10] *898:wbs_dat_i[11] 0.000354474
7 *898:wbs_adr_i[10] *792:19 0.00115374
8 *898:wbs_adr_i[10] *795:19 0.000935385
9 *898:wbs_adr_i[10] *824:19 0.0172096
10 *898:wbs_adr_i[10] *826:19 0.000139574
11 *898:wbs_adr_i[10] *839:12 0.000235786
12 *898:wbs_adr_i[10] *849:11 0.00361456
13 *790:7 *897:sram_dat_i[10] 0.00104304
14 *790:7 *890:7 0.00110457
15 *790:9 *791:9 0.0017925
16 *790:9 *792:9 0.00134409
17 *790:9 *794:9 0.00134409
18 *790:9 *795:9 0.00228539
19 *790:9 *808:9 0.00160242
20 *898:wbs_adr_i[0] *898:wbs_adr_i[10] 0.0043925
21 *107:21 *898:wbs_adr_i[10] 0
22 *141:13 *898:wbs_adr_i[10] 0.000232976
23 *650:25 *790:9 0
24 *665:9 *790:9 0.000592302
25 *672:9 *790:9 0
26 *723:9 *790:9 0.000116155
27 *736:9 *790:9 0
28 *739:11 *790:9 0.0103344
29 *762:17 *790:9 0.000280436
*RES
1 *897:sram_adr_o[10] *790:7 7.18097 
2 *790:7 *790:9 51.0765 
3 *790:9 *898:wbs_adr_i[10] 14.6558 
*END

*D_NET *791 0.105493
*CONN
*I *898:wbs_adr_i[11] I *D CF_SRAM_1024x32_wb_wrapper
*I *897:sram_adr_o[11] O *D soc_sys
*CAP
1 *898:wbs_adr_i[11] 0.000564279
2 *897:sram_adr_o[11] 0.0012014
3 *791:21 0.0066302
4 *791:19 0.00839802
5 *791:9 0.00957691
6 *791:7 0.0084462
7 *898:wbs_adr_i[11] *823:11 0
8 *898:wbs_adr_i[11] *824:19 0
9 *791:7 *897:sram_dat_i[11] 0.00101674
10 *791:7 *860:7 0.00101674
11 *791:9 *797:9 0.000187087
12 *791:9 *808:9 0.0229753
13 *791:19 *898:wbs_adr_i[4] 0.00246523
14 *791:19 *898:wbs_adr_i[6] 2.04036e-05
15 *791:19 *794:19 0.00416303
16 *791:19 *797:19 0.00180219
17 *791:19 *833:11 0.00344665
18 *791:21 *792:21 0.0191602
19 *791:21 *822:11 0.00235601
20 *898:wbs_adr_i[0] *791:19 2.14071e-05
21 *141:21 *791:21 0
22 *142:18 *791:19 0.000132816
23 *647:25 *791:9 0
24 *671:9 *791:9 0.00567269
25 *687:9 *791:9 0
26 *708:9 *791:9 0.000451794
27 *723:9 *791:9 0.00338735
28 *739:11 *791:9 0.000607761
29 *790:9 *791:9 0.0017925
*RES
1 *897:sram_adr_o[11] *791:7 7.07287 
2 *791:7 *791:9 290.946 
3 *791:9 *791:19 24.5482 
4 *791:19 *791:21 181.661 
5 *791:21 *898:wbs_adr_i[11] 12.9107 
*END

*D_NET *792 0.110414
*CONN
*I *898:wbs_adr_i[12] I *D CF_SRAM_1024x32_wb_wrapper
*I *897:sram_adr_o[12] O *D soc_sys
*CAP
1 *898:wbs_adr_i[12] 0.000541343
2 *897:sram_adr_o[12] 0.00122737
3 *792:21 0.00350849
4 *792:19 0.00428578
5 *792:9 0.00796486
6 *792:7 0.0078736
7 *898:wbs_adr_i[12] *898:wbs_dat_i[12] 0
8 *898:wbs_adr_i[12] *824:19 0
9 *792:7 *897:sram_dat_i[12] 0.00127556
10 *792:7 *861:7 0.00127556
11 *792:9 *794:9 0.0127938
12 *792:9 *795:9 0
13 *792:19 *795:19 0.00421944
14 *792:19 *825:19 0.00197506
15 *792:19 *827:19 0.000963557
16 *792:19 *836:15 0.000184436
17 *792:19 *853:11 0.000248928
18 *792:19 *855:9 0
19 *792:19 *865:19 3.19604e-05
20 *792:21 *793:17 0.0207067
21 *792:21 *822:11 0.00254053
22 *898:wbs_adr_i[0] *792:19 0.000907946
23 *898:wbs_adr_i[10] *792:19 0.00115374
24 *141:13 *792:19 0.00245331
25 *141:21 *792:21 0
26 *656:25 *792:9 0.0113016
27 *673:17 *792:9 0.00247609
28 *788:13 *792:9 0
29 *790:9 *792:9 0.00134409
30 *791:21 *792:21 0.0191602
*RES
1 *897:sram_adr_o[12] *792:7 7.6494 
2 *792:7 *792:9 298.232 
3 *792:9 *792:19 23.0654 
4 *792:19 *792:21 196.446 
5 *792:21 *898:wbs_adr_i[12] 12.6071 
*END

*D_NET *793 0.11971
*CONN
*I *898:wbs_adr_i[13] I *D CF_SRAM_1024x32_wb_wrapper
*I *897:sram_adr_o[13] O *D soc_sys
*CAP
1 *898:wbs_adr_i[13] 0.000523512
2 *897:sram_adr_o[13] 0.00439246
3 *793:17 0.00345598
4 *793:15 0.00293247
5 *793:13 0.00126121
6 *793:11 0.00128742
7 *793:9 0.00387286
8 *793:7 0.00823911
9 *898:wbs_adr_i[13] *898:wbs_dat_i[13] 0
10 *898:wbs_adr_i[13] *825:7 0
11 *793:7 *897:sram_dat_i[13] 0.000811199
12 *793:7 *862:7 0.0033498
13 *793:7 *863:7 0.0012992
14 *793:7 *864:7 0
15 *793:9 *828:17 0
16 *793:9 *836:17 0.00454311
17 *793:9 *847:13 0.0161362
18 *793:13 *819:19 0.000128164
19 *793:13 *836:15 0.00029503
20 *793:13 *836:17 0.00458276
21 *793:13 *847:13 0.00271519
22 *793:13 *855:9 5.10732e-05
23 *793:17 *898:wbs_dat_i[1] 0.00248793
24 *793:17 *794:21 0.000112719
25 *793:17 *796:13 0.0211781
26 *141:21 *793:17 0
27 *732:9 *793:9 0.00394002
28 *742:9 *793:9 0.0109972
29 *770:15 *793:7 0.000410046
30 *792:21 *793:17 0.0207067
*RES
1 *897:sram_adr_o[13] *793:7 16.8019 
2 *793:7 *793:9 234.286 
3 *793:9 *793:11 0.535714 
4 *793:11 *793:13 65.1339 
5 *793:13 *793:15 4.5 
6 *793:15 *793:17 203.018 
7 *793:17 *898:wbs_adr_i[13] 12.3036 
*END

*D_NET *794 0.111481
*CONN
*I *898:wbs_adr_i[14] I *D CF_SRAM_1024x32_wb_wrapper
*I *897:sram_adr_o[14] O *D soc_sys
*CAP
1 *898:wbs_adr_i[14] 0.00047156
2 *897:sram_adr_o[14] 0.00122475
3 *794:21 0.00399724
4 *794:19 0.0046858
5 *794:9 0.00779944
6 *794:7 0.00786407
7 *898:wbs_adr_i[14] *898:wbs_dat_i[14] 0
8 *898:wbs_adr_i[14] *826:7 0
9 *794:7 *897:sram_dat_i[14] 0.00115644
10 *794:7 *863:7 0.00123646
11 *794:9 *795:9 0.0131
12 *794:19 *898:wbs_adr_i[6] 0.00013989
13 *794:19 *795:19 3.10885e-05
14 *794:19 *822:13 8.83294e-05
15 *794:21 *795:21 0.0235609
16 *794:21 *796:13 0.0218224
17 *794:21 *797:21 1.98839e-05
18 *794:21 *833:11 0.00248793
19 *65:21 *794:19 0.000330158
20 *142:18 *794:19 0.00284125
21 *673:17 *794:9 0.000209369
22 *790:9 *794:9 0.00134409
23 *791:19 *794:19 0.00416303
24 *792:9 *794:9 0.0127938
25 *793:17 *794:21 0.000112719
*RES
1 *897:sram_adr_o[14] *794:7 7.50527 
2 *794:7 *794:9 301.268 
3 *794:9 *794:19 19.2567 
4 *794:19 *794:21 224.375 
5 *794:21 *898:wbs_adr_i[14] 11.6964 
*END

*D_NET *795 0.117637
*CONN
*I *898:wbs_adr_i[15] I *D CF_SRAM_1024x32_wb_wrapper
*I *897:sram_adr_o[15] O *D soc_sys
*CAP
1 *898:wbs_adr_i[15] 0.000450489
2 *897:sram_adr_o[15] 0.00124382
3 *795:21 0.00377093
4 *795:19 0.00428865
5 *795:9 0.00789378
6 *795:7 0.00816939
7 *898:wbs_adr_i[15] *898:wbs_dat_i[15] 0
8 *898:wbs_adr_i[15] *827:7 0
9 *795:7 *897:sram_dat_i[15] 0.00111168
10 *795:7 *864:7 0.00111168
11 *795:9 *797:9 0.0129339
12 *795:19 *822:13 5.02987e-05
13 *795:19 *885:9 0
14 *795:21 *796:13 0.000349842
15 *795:21 *797:21 0.0242052
16 *795:21 *833:11 0.00268278
17 *898:wbs_adr_i[0] *795:19 0.00440356
18 *898:wbs_adr_i[10] *795:19 0.000935385
19 *141:13 *795:19 0.000108891
20 *673:17 *795:9 0
21 *761:17 *795:9 0.000730158
22 *790:9 *795:9 0.00228539
23 *792:9 *795:9 0
24 *792:19 *795:19 0.00421944
25 *794:9 *795:9 0.0131
26 *794:19 *795:19 3.10885e-05
27 *794:21 *795:21 0.0235609
*RES
1 *897:sram_adr_o[15] *795:7 7.36113 
2 *795:7 *795:9 308.554 
3 *795:9 *795:19 21.2943 
4 *795:19 *795:21 230.125 
5 *795:21 *898:wbs_adr_i[15] 11.3929 
*END

*D_NET *796 0.129435
*CONN
*I *898:wbs_adr_i[16] I *D CF_SRAM_1024x32_wb_wrapper
*I *897:sram_adr_o[16] O *D soc_sys
*CAP
1 *898:wbs_adr_i[16] 0.000479229
2 *897:sram_adr_o[16] 0.00485981
3 *796:13 0.003947
4 *796:11 0.00346778
5 *796:9 0.00422793
6 *796:7 0.00908774
7 *898:wbs_adr_i[16] *898:wbs_dat_i[16] 0
8 *898:wbs_adr_i[16] *828:7 0
9 *796:7 *897:sram_dat_i[15] 5.70495e-05
10 *796:7 *897:sram_dat_i[16] 0.00155874
11 *796:7 *897:sram_dat_i[17] 0
12 *796:7 *864:7 0
13 *796:7 *865:7 0.00183017
14 *796:7 *866:7 0.000387209
15 *796:7 *867:7 0
16 *796:9 *798:9 0.0247808
17 *796:9 *804:9 0.000135328
18 *796:9 *806:9 0.00158497
19 *796:9 *832:19 0.000669818
20 *796:9 *836:15 2.52553e-05
21 *796:9 *864:9 0.0240798
22 *796:9 *864:23 2.00368e-05
23 *796:13 *898:wbs_dat_i[1] 0.00268278
24 *796:13 *797:21 0.000230407
25 *67:223 *796:7 0.00107684
26 *683:9 *796:9 0
27 *732:9 *796:9 0.000896088
28 *793:17 *796:13 0.0211781
29 *794:21 *796:13 0.0218224
30 *795:21 *796:13 0.000349842
*RES
1 *897:sram_adr_o[16] *796:7 17.2343 
2 *796:7 *796:9 309.92 
3 *796:9 *796:11 4.5 
4 *796:11 *796:13 219.446 
5 *796:13 *898:wbs_adr_i[16] 12 
*END

*D_NET *797 0.121392
*CONN
*I *898:wbs_adr_i[17] I *D CF_SRAM_1024x32_wb_wrapper
*I *897:sram_adr_o[17] O *D soc_sys
*CAP
1 *898:wbs_adr_i[17] 0.000433638
2 *897:sram_adr_o[17] 0.0011008
3 *797:21 0.00461114
4 *797:19 0.00536375
5 *797:9 0.00716856
6 *797:7 0.00708311
7 *898:wbs_adr_i[17] *898:wbs_dat_i[17] 0
8 *898:wbs_adr_i[17] *829:7 0
9 *797:7 *897:sram_dat_i[17] 0.00114651
10 *797:7 *866:7 0.00114651
11 *797:9 *808:9 0.0247026
12 *797:19 *833:11 0.000161329
13 *797:19 *844:17 5.49012e-05
14 *797:21 *898:wbs_adr_i[4] 0.00042675
15 *797:21 *802:13 0.0244318
16 *797:21 *807:13 3.6444e-05
17 *898:wbs_adr_i[0] *797:19 0.00207038
18 *113:21 *797:21 0.000143941
19 *739:11 *797:9 0.000628444
20 *761:17 *797:9 0.00130297
21 *791:9 *797:9 0.000187087
22 *791:19 *797:19 0.00180219
23 *794:21 *797:21 1.98839e-05
24 *795:9 *797:9 0.0129339
25 *795:21 *797:21 0.0242052
26 *796:13 *797:21 0.000230407
*RES
1 *897:sram_adr_o[17] *797:7 7.217 
2 *797:7 *797:9 314.018 
3 *797:9 *797:19 18.7675 
4 *797:19 *797:21 249.018 
5 *797:21 *898:wbs_adr_i[17] 11.0893 
*END

*D_NET *798 0.131206
*CONN
*I *898:wbs_adr_i[18] I *D CF_SRAM_1024x32_wb_wrapper
*I *897:sram_adr_o[18] O *D soc_sys
*CAP
1 *898:wbs_adr_i[18] 0.000130384
2 *897:sram_adr_o[18] 0.0040161
3 *798:13 0.00449576
4 *798:11 0.00436538
5 *798:9 0.00410435
6 *798:7 0.00812045
7 *798:7 *897:sram_dat_i[18] 0.00389653
8 *798:7 *799:5 0
9 *798:7 *867:7 0.00385585
10 *798:9 *804:9 0.0253764
11 *798:9 *806:9 0.00158497
12 *798:13 *898:wbs_adr_i[2] 0.00222409
13 *798:13 *808:21 0.0245599
14 *798:13 *819:21 6.26177e-05
15 *798:13 *820:21 0.0186046
16 *798:13 *838:11 0.000131918
17 *142:26 *798:13 0
18 *732:9 *798:9 0.000896088
19 *796:9 *798:9 0.0247808
*RES
1 *897:sram_adr_o[18] *798:7 17.1622 
2 *798:7 *798:9 311.438 
3 *798:9 *798:11 4.5 
4 *798:11 *798:13 232.179 
5 *798:13 *898:wbs_adr_i[18] 6.23214 
*END

*D_NET *799 0.128245
*CONN
*I *898:wbs_adr_i[19] I *D CF_SRAM_1024x32_wb_wrapper
*I *897:sram_adr_o[19] O *D soc_sys
*CAP
1 *898:wbs_adr_i[19] 0.00241271
2 *897:sram_adr_o[19] 0.0217499
3 *799:9 0.0128528
4 *799:7 0.0104401
5 *799:5 0.0217499
6 *898:wbs_adr_i[19] *898:wbs_adr_i[22] 0.00136282
7 *898:wbs_adr_i[19] *898:wbs_adr_i[24] 0.00692257
8 *898:wbs_adr_i[19] *898:wbs_dat_i[23] 0.000106403
9 *898:wbs_adr_i[19] *898:wbs_dat_i[26] 0.000807222
10 *898:wbs_adr_i[19] *898:wbs_dat_i[28] 0.00433152
11 *898:wbs_adr_i[19] *808:21 0.000112662
12 *898:wbs_adr_i[19] *831:7 0
13 *898:wbs_adr_i[19] *834:11 0.000432789
14 *898:wbs_adr_i[19] *835:11 0.00183902
15 *898:wbs_adr_i[19] *838:11 0.00396462
16 *898:wbs_adr_i[19] *841:29 0.000798803
17 *898:wbs_adr_i[19] *842:13 0.000442876
18 *898:wbs_adr_i[19] *880:29 0.000477562
19 *898:wbs_adr_i[19] *883:21 0.000129601
20 *799:5 *897:sram_dat_i[18] 0.000732813
21 *799:5 *897:sram_dat_i[19] 0.00393873
22 *799:5 *897:sram_dat_i[20] 0
23 *799:5 *801:11 0
24 *799:5 *801:15 0.0121706
25 *799:5 *868:7 0.00217782
26 *799:9 *898:wbs_dat_i[30] 1.90936e-05
27 *799:9 *803:9 0
28 *799:9 *843:16 0.00385013
29 *799:9 *879:9 9.62956e-06
30 *799:9 *882:9 0.014412
31 *798:7 *799:5 0
*RES
1 *897:sram_adr_o[19] *799:5 72.2703 
2 *799:5 *799:7 3.41 
3 *799:7 *799:9 315.839 
4 *799:9 *898:wbs_adr_i[19] 26.0775 
*END

*D_NET *800 0.0797178
*CONN
*I *898:wbs_adr_i[1] I *D CF_SRAM_1024x32_wb_wrapper
*I *897:sram_adr_o[1] O *D soc_sys
*CAP
1 *898:wbs_adr_i[1] 0.00274537
2 *897:sram_adr_o[1] 0.00417588
3 *800:9 0.00990511
4 *800:7 0.0113356
5 *898:wbs_adr_i[1] *898:wbs_adr_i[6] 0.01446
6 *898:wbs_adr_i[1] *898:wbs_adr_i[7] 0.000378849
7 *898:wbs_adr_i[1] *898:wbs_dat_i[1] 0
8 *898:wbs_adr_i[1] *822:11 0
9 *898:wbs_adr_i[1] *847:11 0.0137183
10 *800:7 *897:sram_dat_i[0] 0
11 *800:7 *897:sram_dat_i[1] 0.00135799
12 *800:7 *854:7 0.00245792
13 *800:7 *855:7 0
14 *800:7 *870:11 0.000187104
15 *800:9 *814:9 0.0111344
16 *800:9 *886:9 9.06175e-05
17 *800:9 *889:9 0
18 *713:9 *800:9 0.00332565
19 *725:9 *800:9 0.000410052
20 *756:9 *800:9 0.00123769
21 *772:15 *800:7 0.0027973
*RES
1 *897:sram_adr_o[1] *800:7 15.5047 
2 *800:7 *800:9 248.446 
3 *800:9 *898:wbs_adr_i[1] 34.0967 
*END

*D_NET *801 0.0896362
*CONN
*I *898:wbs_adr_i[20] I *D CF_SRAM_1024x32_wb_wrapper
*I *897:sram_adr_o[20] O *D soc_sys
*CAP
1 *898:wbs_adr_i[20] 2.00305e-05
2 *897:sram_adr_o[20] 0.0106481
3 *801:17 0.0169419
4 *801:15 0.0208214
5 *801:11 0.0145476
6 *898:wbs_adr_i[20] *839:12 2.08716e-05
7 *801:11 *897:sram_dat_i[19] 0.000982325
8 *801:11 *897:sram_dat_i[20] 0.0120526
9 *801:11 *869:7 0.00142077
10 *801:17 *810:9 0
11 *801:17 *878:17 0
12 *107:21 *898:wbs_adr_i[20] 9.97767e-06
13 *799:5 *801:11 0
14 *799:5 *801:15 0.0121706
*RES
1 *897:sram_adr_o[20] *801:11 45.3992 
2 *801:11 *801:15 22.3385 
3 *801:15 *801:17 54.5921 
4 *801:17 *898:wbs_adr_i[20] 6.90303 
*END

*D_NET *802 0.143074
*CONN
*I *898:wbs_adr_i[21] I *D CF_SRAM_1024x32_wb_wrapper
*I *897:sram_adr_o[21] O *D soc_sys
*CAP
1 *898:wbs_adr_i[21] 0.000439135
2 *897:sram_adr_o[21] 0.00385268
3 *802:13 0.00461075
4 *802:11 0.00417162
5 *802:9 0.00464829
6 *802:7 0.00850098
7 *898:wbs_adr_i[21] *898:wbs_dat_i[20] 0
8 *898:wbs_adr_i[21] *898:wbs_dat_i[21] 0
9 *802:7 *897:sram_dat_i[21] 0.00708877
10 *802:7 *803:5 0
11 *802:7 *871:7 0.00056032
12 *802:7 *872:7 0.000538086
13 *802:9 *831:13 0.0257765
14 *802:9 *863:19 0.000504663
15 *802:9 *867:9 0.0239834
16 *802:9 *867:15 0.000596609
17 *802:13 *898:wbs_adr_i[4] 0.00262149
18 *802:13 *804:13 0.0264261
19 *802:13 *806:21 0.000178936
20 *802:13 *807:13 8.64143e-05
21 *690:9 *802:9 0.000509831
22 *721:9 *802:9 0.00354735
23 *797:21 *802:13 0.0244318
*RES
1 *897:sram_adr_o[21] *802:7 16.0812 
2 *802:7 *802:9 326.92 
3 *802:9 *802:11 4.5 
4 *802:11 *802:13 256.821 
5 *802:13 *898:wbs_adr_i[21] 10.7857 
*END

*D_NET *803 0.146037
*CONN
*I *898:wbs_adr_i[22] I *D CF_SRAM_1024x32_wb_wrapper
*I *897:sram_adr_o[22] O *D soc_sys
*CAP
1 *898:wbs_adr_i[22] 0.00270273
2 *897:sram_adr_o[22] 0.0168481
3 *803:9 0.0127873
4 *803:7 0.0100845
5 *803:5 0.0168481
6 *898:wbs_adr_i[22] *898:wbs_adr_i[24] 0.00692577
7 *898:wbs_adr_i[22] *898:wbs_dat_i[23] 0.000935938
8 *898:wbs_adr_i[22] *898:wbs_dat_i[27] 0.00256183
9 *898:wbs_adr_i[22] *810:27 0.000102859
10 *898:wbs_adr_i[22] *835:11 0
11 *898:wbs_adr_i[22] *836:7 0
12 *898:wbs_adr_i[22] *845:9 0.000743107
13 *803:5 *897:sram_dat_i[20] 0
14 *803:5 *897:sram_dat_i[21] 0
15 *803:5 *897:sram_dat_i[22] 0.00416693
16 *803:5 *872:7 0.00182277
17 *803:5 *873:5 0.00193343
18 *803:5 *874:15 9.20282e-05
19 *803:5 *875:13 0.030637
20 *803:9 *805:17 0.0266946
21 *803:9 *843:16 0.00647783
22 *803:9 *882:9 0
23 *898:wbs_adr_i[19] *898:wbs_adr_i[22] 0.00136282
24 *65:13 *898:wbs_adr_i[22] 0.000820948
25 *113:21 *898:wbs_adr_i[22] 0.000636181
26 *142:26 *898:wbs_adr_i[22] 0.000851796
27 *799:9 *803:9 0
28 *802:7 *803:5 0
*RES
1 *897:sram_adr_o[22] *803:5 71.91 
2 *803:5 *803:7 3.41 
3 *803:7 *803:9 327.982 
4 *803:9 *898:wbs_adr_i[22] 23.2819 
*END

*D_NET *804 0.14649
*CONN
*I *898:wbs_adr_i[23] I *D CF_SRAM_1024x32_wb_wrapper
*I *897:sram_adr_o[23] O *D soc_sys
*CAP
1 *898:wbs_adr_i[23] 0.000429369
2 *897:sram_adr_o[23] 0.00376083
3 *804:13 0.00439633
4 *804:11 0.00396696
5 *804:9 0.0048296
6 *804:7 0.00859043
7 *898:wbs_adr_i[23] *898:wbs_dat_i[23] 0
8 *898:wbs_adr_i[23] *836:7 0
9 *898:wbs_adr_i[23] *837:7 0
10 *804:7 *897:sram_dat_i[23] 0.00381452
11 *804:7 *897:sram_dat_i[24] 0.000242679
12 *804:7 *873:5 0.00420668
13 *804:9 *806:9 0.00243653
14 *804:9 *832:21 0.0255161
15 *804:9 *836:15 0.000534599
16 *804:9 *836:17 0.000485243
17 *804:9 *875:11 0
18 *804:13 *898:wbs_adr_i[4] 0.00266697
19 *804:13 *806:21 0.0277181
20 *732:9 *804:9 0.000896088
21 *742:9 *804:9 6.13629e-05
22 *796:9 *804:9 0.000135328
23 *798:9 *804:9 0.0253764
24 *802:13 *804:13 0.0264261
*RES
1 *897:sram_adr_o[23] *804:7 17.0901 
2 *804:7 *804:9 333.902 
3 *804:9 *804:11 4.5 
4 *804:11 *804:13 263.393 
5 *804:13 *898:wbs_adr_i[23] 10.4821 
*END

*D_NET *805 0.161915
*CONN
*I *898:wbs_adr_i[24] I *D CF_SRAM_1024x32_wb_wrapper
*I *897:sram_adr_o[24] O *D soc_sys
*CAP
1 *898:wbs_adr_i[24] 0.00135668
2 *897:sram_adr_o[24] 0.00065872
3 *805:17 0.0117209
4 *805:15 0.0103642
5 *805:13 0.0122036
6 *805:11 0.0128624
7 *898:wbs_adr_i[24] *810:31 0.000484212
8 *898:wbs_adr_i[24] *837:7 0
9 *898:wbs_adr_i[24] *838:11 0
10 *805:11 *897:sram_dat_i[23] 9.67859e-05
11 *805:11 *897:sram_dat_i[24] 0.000891654
12 *805:11 *874:11 0.000196322
13 *805:13 *897:sram_dat_i[23] 2.44726e-05
14 *805:13 *897:sram_dat_i[24] 0.0207554
15 *805:13 *873:5 0
16 *805:17 *898:wbs_adr_i[30] 0
17 *805:17 *843:16 0.00579089
18 *805:17 *876:9 0
19 *805:17 *882:9 0
20 *898:wbs_adr_i[19] *898:wbs_adr_i[24] 0.00692257
21 *898:wbs_adr_i[22] *898:wbs_adr_i[24] 0.00692577
22 *74:79 *805:11 9.16729e-05
23 *74:79 *805:13 0.0438224
24 *748:9 *805:11 5.20838e-05
25 *803:9 *805:17 0.0266946
*RES
1 *897:sram_adr_o[24] *805:11 10.0205 
2 *805:11 *805:13 70.0237 
3 *805:13 *805:15 3.41 
4 *805:15 *805:17 333.446 
5 *805:17 *898:wbs_adr_i[24] 20.8473 
*END

*D_NET *806 0.157968
*CONN
*I *898:wbs_adr_i[25] I *D CF_SRAM_1024x32_wb_wrapper
*I *897:sram_adr_o[25] O *D soc_sys
*CAP
1 *898:wbs_adr_i[25] 0.000409646
2 *897:sram_adr_o[25] 0.0114145
3 *806:21 0.0046308
4 *806:19 0.00422115
5 *806:17 0.00300362
6 *806:15 0.00322458
7 *806:9 0.0116355
8 *898:wbs_adr_i[25] *838:11 0
9 *806:9 *897:sram_dat_i[25] 0.00414055
10 *806:9 *820:9 0.00133438
11 *806:9 *832:21 0.00263645
12 *806:9 *836:17 0.00285214
13 *806:9 *864:9 0.00158497
14 *806:9 *875:11 0.00390979
15 *806:17 *898:wbs_adr_i[3] 0.000188112
16 *806:17 *811:9 0.0133034
17 *806:17 *828:15 0
18 *806:17 *828:17 0.00513498
19 *806:17 *855:9 0.000129787
20 *806:21 *898:wbs_adr_i[4] 0.00287584
21 *806:21 *898:wbs_dat_i[27] 0.000236981
22 *806:21 *807:13 0.0293542
23 *541:33 *806:17 2.30116e-06
24 *724:9 *806:17 0.000364679
25 *732:9 *806:9 0.0144776
26 *732:9 *806:17 0.000857043
27 *742:7 *806:15 0
28 *742:9 *806:9 0.00254172
29 *796:9 *806:9 0.00158497
30 *798:9 *806:9 0.00158497
31 *802:13 *806:21 0.000178936
32 *804:9 *806:9 0.00243653
33 *804:13 *806:21 0.0277181
*RES
1 *897:sram_adr_o[25] *806:9 47.3534 
2 *806:9 *806:15 7.1913 
3 *806:15 *806:17 167.241 
4 *806:17 *806:19 4.5 
5 *806:19 *806:21 279 
6 *806:21 *898:wbs_adr_i[25] 10.1786 
*END

*D_NET *807 0.158904
*CONN
*I *898:wbs_adr_i[26] I *D CF_SRAM_1024x32_wb_wrapper
*I *897:sram_adr_o[26] O *D soc_sys
*CAP
1 *898:wbs_adr_i[26] 0.000382337
2 *897:sram_adr_o[26] 0.00251449
3 *807:13 0.004702
4 *807:11 0.00431966
5 *807:9 0.00543565
6 *807:7 0.00795014
7 *898:wbs_adr_i[26] *898:wbs_dat_i[26] 0
8 *898:wbs_adr_i[26] *840:7 0
9 *807:7 *897:sram_dat_i[26] 0.000174727
10 *807:7 *841:35 0.00711629
11 *807:7 *876:5 0.000200972
12 *807:7 *878:13 0.00707296
13 *807:9 *837:13 0.0271503
14 *807:9 *886:9 0.0219627
15 *807:13 *898:wbs_adr_i[7] 0.00266697
16 *807:13 *898:wbs_dat_i[27] 0.00041847
17 *67:217 *807:9 0.00305233
18 *113:21 *807:13 0.0304175
19 *690:9 *807:9 0.000393641
20 *713:9 *807:9 0
21 *721:9 *807:9 0.000569536
22 *725:9 *807:9 0.0010388
23 *780:9 *807:9 0.00188784
24 *797:21 *807:13 3.6444e-05
25 *802:13 *807:13 8.64143e-05
26 *806:21 *807:13 0.0293542
*RES
1 *897:sram_adr_o[26] *807:7 15.7929 
2 *807:7 *807:9 344.223 
3 *807:9 *807:11 4.5 
4 *807:11 *807:13 289.268 
5 *807:13 *898:wbs_adr_i[26] 9.875 
*END

*D_NET *808 0.157571
*CONN
*I *898:wbs_adr_i[27] I *D CF_SRAM_1024x32_wb_wrapper
*I *897:sram_adr_o[27] O *D soc_sys
*CAP
1 *898:wbs_adr_i[27] 0.000107434
2 *897:sram_adr_o[27] 0.0011743
3 *808:21 0.00473667
4 *808:19 0.00619864
5 *808:9 0.00733825
6 *808:7 0.00694315
7 *898:wbs_adr_i[27] *898:wbs_dat_i[27] 0
8 *898:wbs_adr_i[27] *840:7 0
9 *808:7 *897:sram_dat_i[27] 0.000188554
10 *808:7 *877:5 0.00111518
11 *808:7 *880:13 0.00056217
12 *808:19 *898:wbs_adr_i[3] 1.94054e-05
13 *808:19 *898:wbs_dat_i[7] 0.000563228
14 *808:19 *898:wbs_stb_i 0.0033815
15 *808:19 *819:19 0.00105458
16 *808:19 *828:15 4.43299e-05
17 *808:21 *898:wbs_adr_i[2] 0.00239828
18 *808:21 *819:21 6.78083e-05
19 *808:21 *838:11 0.00014225
20 *808:21 *845:9 0
21 *808:21 *880:29 0.000443096
22 *808:21 *883:21 0.00339644
23 *898:wbs_adr_i[19] *808:21 0.000112662
24 *109:21 *808:19 0.000104613
25 *114:29 *808:21 0.0308994
26 *142:26 *808:21 0
27 *541:27 *808:19 0.00572713
28 *541:35 *808:21 7.457e-05
29 *656:29 *808:19 0.000432668
30 *671:9 *808:9 0.000263484
31 *739:11 *808:9 0.000679856
32 *761:17 *808:9 0.0014869
33 *770:17 *808:9 0.00407374
34 *790:9 *808:9 0.00160242
35 *791:9 *808:9 0.0229753
36 *797:9 *808:9 0.0247026
37 *798:13 *808:21 0.0245599
*RES
1 *897:sram_adr_o[27] *808:7 7.14493 
2 *808:7 *808:9 344.375 
3 *808:9 *808:19 21.0998 
4 *808:19 *808:21 292.554 
5 *808:21 *898:wbs_adr_i[27] 5.92857 
*END

*D_NET *809 0.0961115
*CONN
*I *898:wbs_adr_i[28] I *D CF_SRAM_1024x32_wb_wrapper
*I *897:sram_adr_o[28] O *D soc_sys
*CAP
1 *898:wbs_adr_i[28] 0.00145634
2 *897:sram_adr_o[28] 0.0109325
3 *809:9 0.016053
4 *809:7 0.0145967
5 *809:5 0.0109325
6 *898:wbs_adr_i[28] *898:wbs_dat_i[22] 0.00019474
7 *898:wbs_adr_i[28] *898:wbs_dat_i[26] 0.000156507
8 *898:wbs_adr_i[28] *834:11 0.000443583
9 *898:wbs_adr_i[28] *839:12 0.000236217
10 *809:5 *897:sram_dat_i[28] 0.0146208
11 *809:5 *877:5 0
12 *809:5 *878:11 0.000206957
13 *809:5 *879:5 0.00351829
14 *809:5 *880:13 0.0121499
15 *809:9 *875:17 0.0101787
16 *107:21 *898:wbs_adr_i[28] 0.000434909
*RES
1 *897:sram_adr_o[28] *809:5 60.9919 
2 *809:5 *809:7 3.41 
3 *809:7 *809:9 60.4514 
4 *809:9 *898:wbs_adr_i[28] 8.36658 
*END

*D_NET *810 0.108795
*CONN
*I *898:wbs_adr_i[29] I *D CF_SRAM_1024x32_wb_wrapper
*I *897:sram_adr_o[29] O *D soc_sys
*CAP
1 *898:wbs_adr_i[29] 0.00019105
2 *897:sram_adr_o[29] 0.0105358
3 *810:31 0.000934453
4 *810:27 0.00125345
5 *810:9 0.0198175
6 *810:7 0.0193074
7 *810:5 0.0105358
8 *898:wbs_adr_i[29] *898:wbs_dat_i[29] 0
9 *898:wbs_adr_i[29] *842:7 0
10 *810:5 *897:sram_dat_i[29] 0.0187822
11 *810:5 *879:5 0.0187822
12 *810:9 *883:9 0
13 *810:27 *834:11 4.73891e-05
14 *810:27 *838:11 5.11566e-05
15 *810:27 *839:12 0.000664645
16 *810:27 *841:29 0.000112928
17 *810:27 *883:9 0.000147389
18 *810:27 *883:19 1.61405e-05
19 *810:31 *842:13 0.00440708
20 *810:31 *845:9 0.00250239
21 *810:31 *880:29 0.000119193
22 *898:wbs_adr_i[22] *810:27 0.000102859
23 *898:wbs_adr_i[24] *810:31 0.000484212
24 *107:21 *810:27 0
25 *801:17 *810:9 0
*RES
1 *897:sram_adr_o[29] *810:5 57.6768 
2 *810:5 *810:7 3.41 
3 *810:7 *810:9 61.3037 
4 *810:9 *810:27 21.1366 
5 *810:27 *810:31 48.1607 
6 *810:31 *898:wbs_adr_i[29] 2.64286 
*END

*D_NET *811 0.10486
*CONN
*I *898:wbs_adr_i[2] I *D CF_SRAM_1024x32_wb_wrapper
*I *897:sram_adr_o[2] O *D soc_sys
*CAP
1 *898:wbs_adr_i[2] 0.00297421
2 *897:sram_adr_o[2] 0.0047634
3 *811:9 0.00778836
4 *811:7 0.00957755
5 *898:wbs_adr_i[2] *898:wbs_adr_i[3] 0.0140889
6 *898:wbs_adr_i[2] *898:wbs_dat_i[2] 0.000444605
7 *898:wbs_adr_i[2] *898:wbs_dat_i[7] 0.00349283
8 *898:wbs_adr_i[2] *898:wbs_sel_i[1] 0
9 *898:wbs_adr_i[2] *898:wbs_stb_i 0.012724
10 *898:wbs_adr_i[2] *838:11 0.000742823
11 *898:wbs_adr_i[2] *839:12 0.00083417
12 *898:wbs_adr_i[2] *844:15 0
13 *811:7 *897:sram_dat_i[2] 0.00263241
14 *811:7 *897:sram_dat_i[3] 0
15 *811:7 *814:7 0
16 *811:7 *855:7 0.00362587
17 *811:7 *856:7 0
18 *811:9 *828:17 0
19 *811:9 *847:13 4.93137e-05
20 *811:9 *855:9 0.0203396
21 *724:9 *811:9 0.00191184
22 *732:9 *811:9 0.000927157
23 *783:15 *811:7 1.71218e-05
24 *798:13 *898:wbs_adr_i[2] 0.00222409
25 *806:17 *811:9 0.0133034
26 *808:21 *898:wbs_adr_i[2] 0.00239828
*RES
1 *897:sram_adr_o[2] *811:7 16.5857 
2 *811:7 *811:9 250.875 
3 *811:9 *898:wbs_adr_i[2] 31.6219 
*END

*D_NET *812 0.113218
*CONN
*I *898:wbs_adr_i[30] I *D CF_SRAM_1024x32_wb_wrapper
*I *897:sram_adr_o[30] O *D soc_sys
*CAP
1 *898:wbs_adr_i[30] 0.00090311
2 *897:sram_adr_o[30] 0.0140668
3 *812:9 0.0120299
4 *812:7 0.0111268
5 *812:5 0.0140668
6 *898:wbs_adr_i[30] *898:wbs_dat_i[29] 0
7 *898:wbs_adr_i[30] *898:wbs_dat_i[30] 0
8 *898:wbs_adr_i[30] *834:11 0.000188464
9 *812:5 *897:sram_dat_i[29] 0.00980897
10 *812:5 *897:sram_dat_i[30] 0.0165856
11 *812:5 *880:11 0.000174244
12 *812:5 *882:5 0.00449464
13 *812:9 *876:9 0.0274893
14 *109:21 *898:wbs_adr_i[30] 0.00228277
15 *805:17 *898:wbs_adr_i[30] 0
*RES
1 *897:sram_adr_o[30] *812:5 71.3335 
2 *812:5 *812:7 3.41 
3 *812:7 *812:9 352.875 
4 *812:9 *898:wbs_adr_i[30] 33.6875 
*END

*D_NET *813 0.110454
*CONN
*I *898:wbs_adr_i[31] I *D CF_SRAM_1024x32_wb_wrapper
*I *897:sram_adr_o[31] O *D soc_sys
*CAP
1 *898:wbs_adr_i[31] 2.65537e-05
2 *897:sram_adr_o[31] 0.00115131
3 *813:17 0.0198866
4 *813:15 0.0198601
5 *813:13 0.0140138
6 *813:11 0.0151651
7 *898:wbs_adr_i[31] *898:wbs_dat_i[22] 0.000100938
8 *813:11 *897:sram_dat_i[31] 0.00112403
9 *813:11 *882:5 0.00112795
10 *813:13 *897:sram_dat_i[31] 0.00252552
11 *813:13 *883:5 0.0350713
12 *813:17 *846:10 0
13 *107:21 *898:wbs_adr_i[31] 2.27249e-05
14 *761:17 *813:11 0.000128096
15 *770:17 *813:11 0.000250323
*RES
1 *897:sram_adr_o[31] *813:11 13.7156 
2 *813:11 *813:13 64.943 
3 *813:13 *813:15 3.41 
4 *813:15 *813:17 62.9017 
5 *813:17 *898:wbs_adr_i[31] 6.9751 
*END

*D_NET *814 0.105175
*CONN
*I *898:wbs_adr_i[3] I *D CF_SRAM_1024x32_wb_wrapper
*I *897:sram_adr_o[3] O *D soc_sys
*CAP
1 *898:wbs_adr_i[3] 0.00352835
2 *897:sram_adr_o[3] 0.0039445
3 *814:9 0.007571
4 *814:7 0.00798716
5 *898:wbs_adr_i[3] *898:wbs_adr_i[6] 0.000167584
6 *898:wbs_adr_i[3] *898:wbs_cyc_i 0.0123059
7 *898:wbs_adr_i[3] *898:wbs_dat_i[2] 0.000509352
8 *898:wbs_adr_i[3] *898:wbs_dat_i[3] 0
9 *898:wbs_adr_i[3] *898:wbs_dat_i[7] 0.00391741
10 *898:wbs_adr_i[3] *898:wbs_sel_i[2] 0
11 *898:wbs_adr_i[3] *898:wbs_stb_i 4.97144e-05
12 *898:wbs_adr_i[3] *819:19 0.00051572
13 *898:wbs_adr_i[3] *819:21 0.00235601
14 *898:wbs_adr_i[3] *820:21 0.00254053
15 *898:wbs_adr_i[3] *828:15 3.21867e-05
16 *898:wbs_adr_i[3] *828:17 4.6025e-06
17 *898:wbs_adr_i[3] *835:11 0.00305818
18 *898:wbs_adr_i[3] *838:11 0.0016422
19 *814:7 *897:sram_dat_i[3] 0.00357237
20 *814:7 *856:7 0.00326795
21 *814:9 *886:9 0.020682
22 *898:wbs_adr_i[2] *898:wbs_adr_i[3] 0.0140889
23 *541:33 *898:wbs_adr_i[3] 4.01462e-06
24 *713:9 *814:9 0
25 *725:9 *814:9 0.000620259
26 *756:9 *814:9 0.00146759
27 *800:9 *814:9 0.0111344
28 *806:17 *898:wbs_adr_i[3] 0.000188112
29 *808:19 *898:wbs_adr_i[3] 1.94054e-05
30 *811:7 *814:7 0
*RES
1 *897:sram_adr_o[3] *814:7 15.6488 
2 *814:7 *814:9 253.911 
3 *814:9 *898:wbs_adr_i[3] 44.4344 
*END

*D_NET *815 0.111692
*CONN
*I *898:wbs_adr_i[4] I *D CF_SRAM_1024x32_wb_wrapper
*I *897:sram_adr_o[4] O *D soc_sys
*CAP
1 *898:wbs_adr_i[4] 0.00592127
2 *897:sram_adr_o[4] 0.00372744
3 *815:9 0.00998582
4 *815:7 0.00779199
5 *898:wbs_adr_i[4] *898:wbs_adr_i[6] 1.79373e-05
6 *898:wbs_adr_i[4] *898:wbs_adr_i[7] 0.0176925
7 *898:wbs_adr_i[4] *898:wbs_dat_i[4] 0
8 *898:wbs_adr_i[4] *898:wbs_sel_i[3] 0
9 *898:wbs_adr_i[4] *833:11 0.00695184
10 *898:wbs_adr_i[4] *849:11 0
11 *815:7 *897:sram_dat_i[4] 0.00203115
12 *815:7 *897:sram_dat_i[5] 0
13 *815:7 *816:7 0
14 *815:7 *857:7 0.00243947
15 *815:7 *884:7 0.000337075
16 *815:7 *885:7 0.000418854
17 *815:9 *818:9 0.000258689
18 *815:9 *821:9 0.0194108
19 *815:9 *822:13 0
20 *815:9 *856:9 0.0210189
21 *40:13 *815:9 0.000552536
22 *142:26 *898:wbs_adr_i[4] 0.00113236
23 *714:9 *815:9 0
24 *726:9 *815:9 0.000947485
25 *791:19 *898:wbs_adr_i[4] 0.00246523
26 *797:21 *898:wbs_adr_i[4] 0.00042675
27 *802:13 *898:wbs_adr_i[4] 0.00262149
28 *804:13 *898:wbs_adr_i[4] 0.00266697
29 *806:21 *898:wbs_adr_i[4] 0.00287584
*RES
1 *897:sram_adr_o[4] *815:7 14.4957 
2 *815:7 *815:9 264.839 
3 *815:9 *898:wbs_adr_i[4] 41.2511 
*END

*D_NET *816 0.0967045
*CONN
*I *898:wbs_adr_i[5] I *D CF_SRAM_1024x32_wb_wrapper
*I *897:sram_adr_o[5] O *D soc_sys
*CAP
1 *898:wbs_adr_i[5] 0.00437127
2 *897:sram_adr_o[5] 0.00331979
3 *816:9 0.00795488
4 *816:7 0.00690341
5 *898:wbs_adr_i[5] *898:wbs_dat_i[2] 0.0163993
6 *898:wbs_adr_i[5] *898:wbs_dat_i[7] 0.00257905
7 *898:wbs_adr_i[5] *898:wbs_sel_i[0] 0.00484262
8 *898:wbs_adr_i[5] *839:12 0.000795861
9 *816:7 *897:sram_dat_i[5] 0.00312552
10 *816:7 *885:7 0.00307106
11 *816:9 *822:13 0.0194278
12 *816:9 *825:21 3.38439e-05
13 *816:9 *870:13 0.0198712
14 *816:9 *885:9 0.000648352
15 *107:21 *898:wbs_adr_i[5] 0.000690053
16 *540:50 *898:wbs_adr_i[5] 0.00011802
17 *714:9 *816:9 0.000952773
18 *726:9 *816:9 0.00159974
19 *815:7 *816:7 0
*RES
1 *897:sram_adr_o[5] *816:7 14.0633 
2 *816:7 *816:9 260.589 
3 *816:9 *898:wbs_adr_i[5] 36.8311 
*END

*D_NET *817 0.103159
*CONN
*I *898:wbs_adr_i[6] I *D CF_SRAM_1024x32_wb_wrapper
*I *897:sram_adr_o[6] O *D soc_sys
*CAP
1 *898:wbs_adr_i[6] 0.00521946
2 *897:sram_adr_o[6] 0.00171988
3 *817:9 0.0100576
4 *817:7 0.00655803
5 *898:wbs_adr_i[6] *898:wbs_adr_i[7] 0.000722494
6 *898:wbs_adr_i[6] *898:wbs_cyc_i 0.0135187
7 *898:wbs_adr_i[6] *898:wbs_dat_i[6] 0
8 *898:wbs_adr_i[6] *835:11 0.00530138
9 *898:wbs_adr_i[6] *847:11 0.0011664
10 *898:wbs_adr_i[6] *849:11 0
11 *817:7 *897:sram_dat_i[6] 0.00148312
12 *817:7 *886:7 0.00148312
13 *817:9 *840:21 0
14 *817:9 *851:13 0.0103795
15 *898:wbs_adr_i[1] *898:wbs_adr_i[6] 0.01446
16 *898:wbs_adr_i[3] *898:wbs_adr_i[6] 0.000167584
17 *898:wbs_adr_i[4] *898:wbs_adr_i[6] 1.79373e-05
18 *65:21 *898:wbs_adr_i[6] 0.000620144
19 *541:27 *898:wbs_adr_i[6] 0.00141042
20 *649:13 *817:9 0.0213778
21 *652:33 *817:9 0.00227649
22 *657:25 *898:wbs_adr_i[6] 0.00150147
23 *658:25 *898:wbs_adr_i[6] 0.000762127
24 *688:9 *817:9 0.00279504
25 *791:19 *898:wbs_adr_i[6] 2.04036e-05
26 *794:19 *898:wbs_adr_i[6] 0.00013989
*RES
1 *897:sram_adr_o[6] *817:7 8.7304 
2 *817:7 *817:9 269.696 
3 *817:9 *898:wbs_adr_i[6] 46.7498 
*END

*D_NET *818 0.108236
*CONN
*I *898:wbs_adr_i[7] I *D CF_SRAM_1024x32_wb_wrapper
*I *897:sram_adr_o[7] O *D soc_sys
*CAP
1 *898:wbs_adr_i[7] 0.0066118
2 *897:sram_adr_o[7] 0.00418517
3 *818:9 0.013793
4 *818:7 0.0113664
5 *898:wbs_adr_i[7] *835:11 0.000151725
6 *898:wbs_adr_i[7] *847:11 0.0159646
7 *898:wbs_adr_i[7] *849:11 0
8 *898:wbs_adr_i[7] *850:7 0
9 *898:wbs_adr_i[7] *851:7 0
10 *898:wbs_adr_i[7] *853:11 0
11 *818:7 *897:sram_dat_i[6] 1.4889e-05
12 *818:7 *897:sram_dat_i[7] 0.00153794
13 *818:7 *886:7 0
14 *818:7 *887:7 0.00214585
15 *818:7 *888:7 0.000331971
16 *818:7 *889:7 0
17 *818:9 *856:9 0.0209714
18 *818:9 *871:9 0
19 *898:wbs_adr_i[1] *898:wbs_adr_i[7] 0.000378849
20 *898:wbs_adr_i[4] *898:wbs_adr_i[7] 0.0176925
21 *898:wbs_adr_i[6] *898:wbs_adr_i[7] 0.000722494
22 *40:13 *818:9 0.000976534
23 *113:21 *898:wbs_adr_i[7] 0.00287584
24 *677:9 *818:9 0.000601744
25 *689:9 *818:9 0.0030474
26 *714:9 *818:9 0
27 *744:9 *818:9 0.00193981
28 *807:13 *898:wbs_adr_i[7] 0.00266697
29 *815:9 *818:9 0.000258689
*RES
1 *897:sram_adr_o[7] *818:7 14.6399 
2 *818:7 *818:9 275.161 
3 *818:9 *898:wbs_adr_i[7] 43.7428 
*END

*D_NET *819 0.10116
*CONN
*I *898:wbs_adr_i[8] I *D CF_SRAM_1024x32_wb_wrapper
*I *897:sram_adr_o[8] O *D soc_sys
*CAP
1 *898:wbs_adr_i[8] 0.000173656
2 *897:sram_adr_o[8] 0.000564515
3 *819:21 0.00384765
4 *819:19 0.00612024
5 *819:9 0.0113907
6 *819:7 0.00950897
7 *898:wbs_adr_i[8] *898:wbs_dat_i[8] 0
8 *898:wbs_adr_i[8] *851:7 0
9 *819:7 *897:sram_dat_i[8] 0.000514773
10 *819:7 *888:7 0.000524641
11 *819:19 *898:wbs_dat_i[2] 0.00236271
12 *819:19 *898:wbs_dat_i[7] 0.00043668
13 *819:19 *898:wbs_stb_i 0.00367872
14 *819:19 *847:13 0.000129811
15 *819:21 *820:21 0.0179581
16 *898:wbs_adr_i[3] *819:19 0.00051572
17 *898:wbs_adr_i[3] *819:21 0.00235601
18 *67:231 *819:9 0.000440598
19 *67:249 *819:9 0.00930805
20 *103:39 *819:9 0.00183772
21 *142:26 *819:21 0
22 *540:50 *819:19 0.000240163
23 *541:35 *819:21 0.0111534
24 *647:31 *819:19 0.000580795
25 *650:35 *819:19 0.000327344
26 *650:37 *819:19 0.00022614
27 *651:31 *819:19 0.00032532
28 *651:33 *819:19 0.000243851
29 *656:29 *819:19 0.00168863
30 *673:9 *819:9 0.0033082
31 *716:9 *819:9 0.000346586
32 *727:9 *819:9 0.000959122
33 *743:9 *819:9 0
34 *748:9 *819:9 0.0087779
35 *763:9 *819:9 0
36 *793:13 *819:19 0.000128164
37 *798:13 *819:21 6.26177e-05
38 *808:19 *819:19 0.00105458
39 *808:21 *819:21 6.78083e-05
*RES
1 *897:sram_adr_o[8] *819:7 5.19913 
2 *819:7 *819:9 273.946 
3 *819:9 *819:19 24.7644 
4 *819:19 *819:21 172.625 
5 *819:21 *898:wbs_adr_i[8] 6.83929 
*END

*D_NET *820 0.101778
*CONN
*I *898:wbs_adr_i[9] I *D CF_SRAM_1024x32_wb_wrapper
*I *897:sram_adr_o[9] O *D soc_sys
*CAP
1 *898:wbs_adr_i[9] 0.000151076
2 *897:sram_adr_o[9] 0.00483223
3 *820:21 0.00263875
4 *820:19 0.00268011
5 *820:9 0.00859298
6 *820:7 0.0132328
7 *898:wbs_adr_i[9] *898:wbs_dat_i[9] 0
8 *898:wbs_adr_i[9] *852:7 0
9 *820:7 *897:sram_dat_i[9] 0.00278538
10 *820:7 *860:7 0
11 *820:7 *889:7 0.00350026
12 *820:9 *849:13 0
13 *820:9 *864:9 0.0223641
14 *820:19 *832:19 0.000281171
15 *820:19 *864:23 0.000281368
16 *898:wbs_adr_i[3] *820:21 0.00254053
17 *142:26 *820:21 0
18 *683:9 *820:9 0
19 *798:13 *820:21 0.0186046
20 *806:9 *820:9 0.00133438
21 *819:21 *820:21 0.0179581
*RES
1 *897:sram_adr_o[9] *820:7 17.3784 
2 *820:7 *820:9 274.098 
3 *820:9 *820:19 18.6071 
4 *820:19 *820:21 175.5 
5 *820:21 *898:wbs_adr_i[9] 6.53571 
*END

*D_NET *821 0.0838867
*CONN
*I *898:wbs_cyc_i I *D CF_SRAM_1024x32_wb_wrapper
*I *897:sram_cyc_o O *D soc_sys
*CAP
1 *898:wbs_cyc_i 0.00265755
2 *897:sram_cyc_o 0.00435037
3 *821:9 0.00861627
4 *821:7 0.0103091
5 *898:wbs_cyc_i *898:wbs_stb_i 2.06702e-05
6 *821:7 *897:sram_dat_i[0] 0
7 *821:7 *858:7 0.00205599
8 *821:9 *822:13 0
9 *897:sram_ack_i *821:7 0.00127492
10 *898:wbs_adr_i[3] *898:wbs_cyc_i 0.0123059
11 *898:wbs_adr_i[6] *898:wbs_cyc_i 0.0135187
12 *40:13 *821:9 0.000630425
13 *540:56 *821:9 4.31629e-05
14 *541:27 *898:wbs_cyc_i 0.00115112
15 *541:35 *898:wbs_cyc_i 0.00239828
16 *690:7 *821:7 0.000634519
17 *714:9 *821:9 0.00348367
18 *726:9 *821:9 0.00102523
19 *788:11 *898:wbs_cyc_i 0
20 *815:9 *821:9 0.0194108
*RES
1 *897:sram_cyc_o *821:7 14.4237 
2 *821:7 *821:9 238.732 
3 *821:9 *898:wbs_cyc_i 31.4411 
*END

*D_NET *822 0.0954088
*CONN
*I *897:sram_dat_i[0] I *D soc_sys
*I *898:wbs_dat_o[0] O *D CF_SRAM_1024x32_wb_wrapper
*CAP
1 *897:sram_dat_i[0] 0.00441425
2 *898:wbs_dat_o[0] 0.00308041
3 *822:13 0.0101826
4 *822:11 0.00884874
5 *897:sram_dat_i[0] *854:7 0.000361305
6 *897:sram_dat_i[0] *858:7 0
7 *897:sram_dat_i[0] *859:7 0.00130521
8 *897:sram_dat_i[0] *891:7 0.000645517
9 *822:11 *898:wbs_dat_i[0] 0
10 *822:11 *898:wbs_dat_i[1] 0.0148548
11 *822:11 *849:11 0.000267497
12 *822:13 *870:13 0.000365368
13 *822:13 *885:9 1.78393e-05
14 *898:wbs_adr_i[0] *822:11 0.0147369
15 *898:wbs_adr_i[1] *822:11 0
16 *540:56 *822:13 0.000139714
17 *650:25 *897:sram_dat_i[0] 0.000300766
18 *651:21 *897:sram_dat_i[0] 0.000115154
19 *714:9 *822:13 0.00938564
20 *726:9 *822:13 0.00173062
21 *789:7 *897:sram_dat_i[0] 0.000193493
22 *791:21 *822:11 0.00235601
23 *792:21 *822:11 0.00254053
24 *794:19 *822:13 8.83294e-05
25 *795:19 *822:13 5.02987e-05
26 *800:7 *897:sram_dat_i[0] 0
27 *815:9 *822:13 0
28 *816:9 *822:13 0.0194278
29 *821:7 *897:sram_dat_i[0] 0
30 *821:9 *822:13 0
*RES
1 *898:wbs_dat_o[0] *822:11 38.9953 
2 *822:11 *822:13 249.054 
3 *822:13 *897:sram_dat_i[0] 14.1354 
*END

*D_NET *823 0.119705
*CONN
*I *897:sram_dat_i[10] I *D soc_sys
*I *898:wbs_dat_o[10] O *D CF_SRAM_1024x32_wb_wrapper
*CAP
1 *897:sram_dat_i[10] 0.00239854
2 *898:wbs_dat_o[10] 0.00736475
3 *823:17 0.00693737
4 *823:15 0.00654801
5 *823:11 0.00937392
6 *897:sram_dat_i[10] *860:7 0.00201715
7 *897:sram_dat_i[10] *890:7 0.00043404
8 *823:11 *898:wbs_dat_i[10] 0
9 *823:11 *898:wbs_dat_i[11] 0.00280101
10 *823:11 *898:wbs_sel_i[1] 0.0108229
11 *823:11 *824:19 0.00213669
12 *823:11 *825:9 0.0032551
13 *823:11 *826:9 0.000564697
14 *823:11 *828:9 0.000118491
15 *823:11 *844:15 0.000225006
16 *823:11 *848:17 0.000494379
17 *823:11 *850:11 0.000280544
18 *823:11 *853:11 0
19 *823:11 *860:15 0.0017606
20 *823:11 *864:25 0.000490889
21 *823:15 *898:wbs_dat_i[11] 0.00123518
22 *823:15 *898:wbs_sel_i[1] 0.00125002
23 *823:15 *824:19 0.000118377
24 *823:15 *826:19 0.00432764
25 *823:15 *860:15 0.00172589
26 *823:15 *866:19 0.0017106
27 *823:15 *868:19 0.000371646
28 *823:17 *868:9 0.0240197
29 *823:17 *887:9 0.0229485
30 *898:wbs_adr_i[11] *823:11 0
31 *651:21 *823:17 0.00235499
32 *686:9 *823:17 0.000575861
33 *790:7 *897:sram_dat_i[10] 0.00104304
*RES
1 *898:wbs_dat_o[10] *823:11 46.0912 
2 *823:11 *823:15 15.6723 
3 *823:15 *823:17 298.232 
4 *823:17 *897:sram_dat_i[10] 10.6041 
*END

*D_NET *824 0.146036
*CONN
*I *897:sram_dat_i[11] I *D soc_sys
*I *898:wbs_dat_o[11] O *D CF_SRAM_1024x32_wb_wrapper
*CAP
1 *897:sram_dat_i[11] 0.00194283
2 *898:wbs_dat_o[11] 0.0117815
3 *824:21 0.0160745
4 *824:19 0.0259131
5 *897:sram_dat_i[11] *860:7 0.000226688
6 *897:sram_dat_i[11] *861:7 0.00162161
7 *824:19 *898:wbs_dat_i[11] 0.00817755
8 *824:19 *898:wbs_dat_i[23] 4.73891e-05
9 *824:19 *898:wbs_dat_i[3] 0.00212171
10 *824:19 *898:wbs_sel_i[1] 0.00115316
11 *824:19 *825:19 0.000170235
12 *824:19 *826:19 0.000190663
13 *824:19 *829:19 0.000392303
14 *824:19 *844:15 0.00382707
15 *824:19 *848:17 0.00343098
16 *824:19 *848:21 0.000912163
17 *824:19 *850:11 0.00487899
18 *824:19 *853:11 0.00476071
19 *824:19 *865:19 0.000323632
20 *824:21 *840:21 0.002596
21 *824:21 *852:13 0.0011011
22 *824:21 *865:9 0.0015313
23 *824:21 *872:9 0.00165695
24 *824:21 *891:9 0.0011011
25 *898:wbs_adr_i[10] *824:19 0.0172096
26 *898:wbs_adr_i[11] *824:19 0
27 *898:wbs_adr_i[12] *824:19 0
28 *141:13 *824:19 0.000229898
29 *143:39 *824:19 0.000305991
30 *652:33 *824:21 0.00405609
31 *658:21 *824:21 0
32 *719:9 *824:21 0.0125744
33 *740:11 *824:21 0.0106889
34 *769:9 *824:21 0.000397817
35 *788:11 *824:19 0.00136856
36 *791:7 *897:sram_dat_i[11] 0.00101674
37 *823:11 *824:19 0.00213669
38 *823:15 *824:19 0.000118377
*RES
1 *898:wbs_dat_o[11] *824:19 18.4014 
2 *824:19 *824:21 52.4614 
3 *824:21 *897:sram_dat_i[11] 9.19883 
*END

*D_NET *825 0.107856
*CONN
*I *897:sram_dat_i[12] I *D soc_sys
*I *898:wbs_dat_o[12] O *D CF_SRAM_1024x32_wb_wrapper
*CAP
1 *897:sram_dat_i[12] 0.00329595
2 *898:wbs_dat_o[12] 0.000971567
3 *825:21 0.00855391
4 *825:19 0.00626431
5 *825:9 0.00729684
6 *825:7 0.00726207
7 *897:sram_dat_i[12] *860:7 0
8 *897:sram_dat_i[12] *861:7 0.000641569
9 *897:sram_dat_i[12] *862:7 0.0027454
10 *825:7 *898:wbs_dat_i[12] 0
11 *825:9 *898:wbs_sel_i[1] 0.000562379
12 *825:9 *826:9 0.020401
13 *825:19 *898:wbs_dat_i[3] 0.000248285
14 *825:19 *849:11 2.1599e-05
15 *825:19 *853:11 0.00291373
16 *825:21 *860:9 0.0105135
17 *825:21 *885:9 0.0220559
18 *898:wbs_adr_i[0] *825:19 0.000220108
19 *898:wbs_adr_i[13] *825:7 0
20 *110:21 *825:9 0
21 *680:9 *825:21 0.00538507
22 *714:9 *825:21 0
23 *726:9 *825:21 0.000161595
24 *738:9 *825:21 0.00085048
25 *761:15 *897:sram_dat_i[12] 0.000781446
26 *792:7 *897:sram_dat_i[12] 0.00127556
27 *792:19 *825:19 0.00197506
28 *816:9 *825:21 3.38439e-05
29 *823:11 *825:9 0.0032551
30 *824:19 *825:19 0.000170235
*RES
1 *898:wbs_dat_o[12] *825:7 19.2857 
2 *825:7 *825:9 191.929 
3 *825:9 *825:19 19.8989 
4 *825:19 *825:21 300.054 
5 *825:21 *897:sram_dat_i[12] 13.8471 
*END

*D_NET *826 0.112537
*CONN
*I *897:sram_dat_i[13] I *D soc_sys
*I *898:wbs_dat_o[13] O *D CF_SRAM_1024x32_wb_wrapper
*CAP
1 *897:sram_dat_i[13] 0.000812106
2 *898:wbs_dat_o[13] 0.000918141
3 *826:21 0.0100519
4 *826:19 0.0112484
5 *826:9 0.00486545
6 *826:7 0.00377493
7 *897:sram_dat_i[13] *863:7 0.000811199
8 *826:7 *898:wbs_dat_i[13] 0
9 *826:7 *898:wbs_dat_i[14] 0
10 *826:9 *898:wbs_sel_i[1] 0.00277065
11 *826:9 *864:25 0.0216981
12 *826:19 *898:wbs_dat_i[11] 0.000635869
13 *826:19 *898:wbs_sel_i[1] 0.000289982
14 *826:19 *840:19 0.000169702
15 *826:19 *868:19 1.47001e-05
16 *898:wbs_adr_i[10] *826:19 0.000139574
17 *898:wbs_adr_i[14] *826:7 0
18 *40:21 *826:21 0.00571576
19 *110:21 *826:9 0
20 *143:39 *826:19 0.00176711
21 *733:9 *826:21 3.38439e-05
22 *734:9 *826:21 0.000503998
23 *745:9 *826:21 0.0106344
24 *761:15 *826:21 0.000160692
25 *772:9 *826:21 0.000317172
26 *779:9 *826:21 0.00761229
27 *788:11 *826:19 0.00129569
28 *793:7 *897:sram_dat_i[13] 0.000811199
29 *823:11 *826:9 0.000564697
30 *823:15 *826:19 0.00432764
31 *824:19 *826:19 0.000190663
32 *825:9 *826:9 0.020401
*RES
1 *898:wbs_dat_o[13] *826:7 18.9821 
2 *826:7 *826:9 204.25 
3 *826:9 *826:19 24.1005 
4 *826:19 *826:21 308.554 
5 *826:21 *897:sram_dat_i[13] 6.136 
*END

*D_NET *827 0.125799
*CONN
*I *897:sram_dat_i[14] I *D soc_sys
*I *898:wbs_dat_o[14] O *D CF_SRAM_1024x32_wb_wrapper
*CAP
1 *897:sram_dat_i[14] 0.00264793
2 *898:wbs_dat_o[14] 0.000845534
3 *827:21 0.00780497
4 *827:19 0.0056406
5 *827:9 0.00395466
6 *827:7 0.00431663
7 *897:sram_dat_i[14] *863:7 0.000524664
8 *897:sram_dat_i[14] *864:7 0.00232557
9 *827:7 *898:wbs_dat_i[14] 0
10 *827:7 *898:wbs_dat_i[15] 0
11 *827:9 *828:9 0.0230435
12 *827:9 *844:15 0.000413005
13 *827:9 *848:17 0.000175894
14 *827:9 *865:21 0.0248921
15 *827:19 *844:17 6.55442e-05
16 *827:19 *850:11 0.000237092
17 *827:19 *853:11 0.000208829
18 *827:19 *865:19 0.000295767
19 *827:19 *890:9 0
20 *827:21 *857:9 0.0106861
21 *827:21 *866:9 0.0247985
22 *827:21 *888:11 0.0019461
23 *898:wbs_adr_i[15] *827:7 0
24 *685:9 *827:21 0.00544533
25 *737:9 *827:21 0.000939465
26 *788:11 *827:9 0.00247116
27 *792:19 *827:19 0.000963557
28 *794:7 *897:sram_dat_i[14] 0.00115644
*RES
1 *898:wbs_dat_o[14] *827:7 18.0714 
2 *827:7 *827:9 234.643 
3 *827:9 *827:19 15.5858 
4 *827:19 *827:21 307.339 
5 *827:21 *897:sram_dat_i[14] 11.6131 
*END

*D_NET *828 0.12314
*CONN
*I *897:sram_dat_i[15] I *D soc_sys
*I *898:wbs_dat_o[15] O *D CF_SRAM_1024x32_wb_wrapper
*CAP
1 *897:sram_dat_i[15] 0.00385245
2 *898:wbs_dat_o[15] 0.000860526
3 *828:17 0.0109216
4 *828:15 0.00779203
5 *828:9 0.00391173
6 *828:7 0.00404933
7 *897:sram_dat_i[15] *864:7 0.000996781
8 *897:sram_dat_i[15] *865:7 0.000503192
9 *828:7 *898:wbs_dat_i[15] 0
10 *828:7 *898:wbs_dat_i[16] 0
11 *828:9 *831:9 7.87021e-05
12 *828:9 *844:15 0.000445352
13 *828:9 *848:17 0.000152904
14 *828:9 *864:25 0.0221771
15 *828:9 *865:21 0.000240748
16 *828:15 *831:13 0.000962047
17 *828:15 *855:9 0
18 *828:15 *863:19 1.60506e-05
19 *828:17 *831:13 0.000272901
20 *828:17 *847:13 0
21 *828:17 *863:9 0.023914
22 *898:wbs_adr_i[16] *828:7 0
23 *898:wbs_adr_i[3] *828:15 3.21867e-05
24 *898:wbs_adr_i[3] *828:17 4.6025e-06
25 *67:223 *897:sram_dat_i[15] 0.00625155
26 *110:21 *828:9 0
27 *541:33 *828:15 2.11419e-05
28 *721:9 *828:17 0.00186716
29 *742:9 *828:17 0
30 *778:9 *828:17 0.00194076
31 *788:11 *828:9 0.00236543
32 *793:9 *828:17 0
33 *795:7 *897:sram_dat_i[15] 0.00111168
34 *796:7 *897:sram_dat_i[15] 5.70495e-05
35 *806:17 *828:15 0
36 *806:17 *828:17 0.00513498
37 *808:19 *828:15 4.43299e-05
38 *811:9 *828:17 0
39 *823:11 *828:9 0.000118491
40 *827:9 *828:9 0.0230435
*RES
1 *898:wbs_dat_o[15] *828:7 18.375 
2 *828:7 *828:9 223.143 
3 *828:9 *828:15 18.9732 
4 *828:15 *828:17 300.054 
5 *828:17 *897:sram_dat_i[15] 16.2974 
*END

*D_NET *829 0.134357
*CONN
*I *897:sram_dat_i[16] I *D soc_sys
*I *898:wbs_dat_o[16] O *D CF_SRAM_1024x32_wb_wrapper
*CAP
1 *897:sram_dat_i[16] 0.00142151
2 *898:wbs_dat_o[16] 0.000725854
3 *829:21 0.00659952
4 *829:19 0.00572278
5 *829:9 0.00428567
6 *829:7 0.00446676
7 *897:sram_dat_i[16] *866:7 0.00155874
8 *829:7 *898:wbs_dat_i[16] 0
9 *829:7 *898:wbs_dat_i[17] 0
10 *829:9 *830:9 0.000717321
11 *829:9 *832:9 0.023683
12 *829:9 *836:9 0.0238524
13 *829:9 *837:9 0.000368199
14 *829:9 *850:11 0.00320409
15 *829:9 *865:21 0.000496758
16 *829:19 *848:21 0.0011654
17 *829:19 *850:11 0.000845118
18 *829:19 *865:19 0.000556333
19 *829:21 *851:13 0.0227959
20 *829:21 *869:9 0.000926139
21 *898:wbs_adr_i[17] *829:7 0
22 *141:13 *829:19 0.00020908
23 *143:47 *829:9 0.000831416
24 *646:18 *829:21 0.0175099
25 *650:25 *829:21 0.002114
26 *684:9 *829:21 0.00607683
27 *688:9 *829:21 0.00138407
28 *783:15 *829:21 0.000232063
29 *788:11 *829:19 0.000656893
30 *796:7 *897:sram_dat_i[16] 0.00155874
31 *824:19 *829:19 0.000392303
*RES
1 *898:wbs_dat_o[16] *829:7 16.5536 
2 *829:7 *829:9 252.714 
3 *829:9 *829:19 15.8543 
4 *829:19 *829:21 316.446 
5 *829:21 *897:sram_dat_i[16] 8.5142 
*END

*D_NET *830 0.128081
*CONN
*I *897:sram_dat_i[17] I *D soc_sys
*I *898:wbs_dat_o[17] O *D CF_SRAM_1024x32_wb_wrapper
*CAP
1 *897:sram_dat_i[17] 0.00370888
2 *898:wbs_dat_o[17] 0.00077279
3 *830:13 0.00990404
4 *830:11 0.00619516
5 *830:9 0.00329817
6 *830:7 0.00407096
7 *897:sram_dat_i[17] *866:7 0.000573794
8 *897:sram_dat_i[17] *867:7 0.0035752
9 *830:7 *898:wbs_dat_i[17] 0
10 *830:7 *898:wbs_dat_i[18] 0
11 *830:9 *831:9 0.0250309
12 *830:9 *832:9 0.0243362
13 *830:9 *844:15 0.000131918
14 *830:9 *848:17 0.00286322
15 *830:9 *850:11 0.00014225
16 *830:9 *865:21 0.000342503
17 *830:13 *862:9 0.0241806
18 *830:13 *871:9 0.0100489
19 *682:9 *830:13 0.00659018
20 *713:9 *830:13 0.000451829
21 *796:7 *897:sram_dat_i[17] 0
22 *797:7 *897:sram_dat_i[17] 0.00114651
23 *829:9 *830:9 0.000717321
*RES
1 *898:wbs_dat_o[17] *830:7 17.1607 
2 *830:7 *830:9 242.036 
3 *830:9 *830:11 4.5 
4 *830:11 *830:13 319.938 
5 *830:13 *897:sram_dat_i[17] 15.0723 
*END

*D_NET *831 0.13949
*CONN
*I *897:sram_dat_i[18] I *D soc_sys
*I *898:wbs_dat_o[18] O *D CF_SRAM_1024x32_wb_wrapper
*CAP
1 *897:sram_dat_i[18] 0.00373885
2 *898:wbs_dat_o[18] 0.000765659
3 *831:13 0.0084283
4 *831:11 0.00468945
5 *831:9 0.00359602
6 *831:7 0.00436168
7 *897:sram_dat_i[18] *868:7 0.00217782
8 *831:7 *898:wbs_dat_i[18] 0
9 *831:7 *898:wbs_dat_i[19] 0
10 *831:7 *845:27 6.58704e-05
11 *831:9 *832:9 0.000358973
12 *831:9 *844:15 0.00289793
13 *831:9 *848:17 0.000179039
14 *831:9 *848:21 0.000152412
15 *831:9 *850:11 0.000129601
16 *831:9 *865:21 0.0235105
17 *831:13 *863:9 0.0239114
18 *831:13 *863:19 0.000228399
19 *898:wbs_adr_i[19] *831:7 0
20 *721:9 *831:13 0.00354735
21 *742:9 *831:13 0
22 *798:7 *897:sram_dat_i[18] 0.00389653
23 *799:5 *897:sram_dat_i[18] 0.000732813
24 *802:9 *831:13 0.0257765
25 *828:9 *831:9 7.87021e-05
26 *828:15 *831:13 0.000962047
27 *828:17 *831:13 0.000272901
28 *830:9 *831:9 0.0250309
*RES
1 *898:wbs_dat_o[18] *831:7 17.4643 
2 *831:7 *831:9 242.036 
3 *831:9 *831:11 4.5 
4 *831:11 *831:13 323.884 
5 *831:13 *897:sram_dat_i[18] 16.1533 
*END

*D_NET *832 0.141742
*CONN
*I *897:sram_dat_i[19] I *D soc_sys
*I *898:wbs_dat_o[19] O *D CF_SRAM_1024x32_wb_wrapper
*CAP
1 *897:sram_dat_i[19] 0.00436758
2 *898:wbs_dat_o[19] 0.000759754
3 *832:21 0.00831813
4 *832:19 0.00465096
5 *832:9 0.00409137
6 *832:7 0.00415071
7 *897:sram_dat_i[19] *869:7 0.00142077
8 *832:7 *898:wbs_dat_i[19] 0
9 *832:7 *898:wbs_dat_i[20] 0
10 *832:9 *836:9 0.00107378
11 *832:9 *844:15 0.00014225
12 *832:9 *848:17 0.00308746
13 *832:9 *850:11 0.000131918
14 *832:19 *836:15 0
15 *832:19 *864:23 0.000733457
16 *832:21 *836:17 0.0255152
17 *732:9 *832:21 0.000896088
18 *796:9 *832:19 0.000669818
19 *799:5 *897:sram_dat_i[19] 0.00393873
20 *801:11 *897:sram_dat_i[19] 0.000982325
21 *804:9 *832:21 0.0255161
22 *806:9 *832:21 0.00263645
23 *820:19 *832:19 0.000281171
24 *829:9 *832:9 0.023683
25 *830:9 *832:9 0.0243362
26 *831:9 *832:9 0.000358973
*RES
1 *898:wbs_dat_o[19] *832:7 16.8571 
2 *832:7 *832:9 241.625 
3 *832:9 *832:19 29.3571 
4 *832:19 *832:21 312.955 
5 *832:21 *897:sram_dat_i[19] 17.0181 
*END

*D_NET *833 0.106133
*CONN
*I *897:sram_dat_i[1] I *D soc_sys
*I *898:wbs_dat_o[1] O *D CF_SRAM_1024x32_wb_wrapper
*CAP
1 *897:sram_dat_i[1] 0.00262097
2 *898:wbs_dat_o[1] 0.00454391
3 *833:13 0.00610102
4 *833:11 0.00802396
5 *897:sram_dat_i[1] *870:11 0.00434395
6 *833:11 *898:wbs_dat_i[1] 0.015623
7 *833:11 *898:wbs_sel_i[1] 0
8 *833:11 *849:11 6.80387e-05
9 *833:13 *844:17 0.0204872
10 *833:13 *853:13 0.0204887
11 *833:13 *861:9 0.00375797
12 *898:wbs_adr_i[0] *833:11 0.000193149
13 *898:wbs_adr_i[4] *833:11 0.00695184
14 *772:15 *897:sram_dat_i[1] 0.00279258
15 *791:19 *833:11 0.00344665
16 *794:21 *833:11 0.00248793
17 *795:21 *833:11 0.00268278
18 *797:19 *833:11 0.000161329
19 *800:7 *897:sram_dat_i[1] 0.00135799
*RES
1 *898:wbs_dat_o[1] *833:11 40.4475 
2 *833:11 *833:13 252.696 
3 *833:13 *897:sram_dat_i[1] 12.9103 
*END

*D_NET *834 0.109594
*CONN
*I *897:sram_dat_i[20] I *D soc_sys
*I *898:wbs_dat_o[20] O *D CF_SRAM_1024x32_wb_wrapper
*CAP
1 *897:sram_dat_i[20] 0.0196554
2 *898:wbs_dat_o[20] 0.00217423
3 *834:15 0.0196554
4 *834:13 0.0155349
5 *834:11 0.0177091
6 *897:sram_dat_i[20] *897:sram_dat_i[21] 0.00444257
7 *897:sram_dat_i[20] *871:7 0.00333476
8 *834:11 *898:wbs_dat_i[25] 0.00280598
9 *834:11 *898:wbs_dat_i[26] 0.00449825
10 *834:11 *838:11 0.0011234
11 *834:11 *839:12 0.00348894
12 *834:11 *841:29 0.000703323
13 *834:11 *842:19 0.000630455
14 *834:11 *843:14 0.000347279
15 *834:11 *880:27 4.01462e-06
16 *834:11 *883:19 4.73891e-05
17 *898:wbs_adr_i[19] *834:11 0.000432789
18 *898:wbs_adr_i[28] *834:11 0.000443583
19 *898:wbs_adr_i[30] *834:11 0.000188464
20 *109:21 *834:11 0.000131918
21 *114:29 *834:11 0.00014225
22 *799:5 *897:sram_dat_i[20] 0
23 *801:11 *897:sram_dat_i[20] 0.0120526
24 *803:5 *897:sram_dat_i[20] 0
25 *810:27 *834:11 4.73891e-05
*RES
1 *898:wbs_dat_o[20] *834:11 20.5807 
2 *834:11 *834:13 318.875 
3 *834:13 *834:15 3.41 
4 *834:15 *897:sram_dat_i[20] 70.3966 
*END

*D_NET *835 0.104739
*CONN
*I *897:sram_dat_i[21] I *D soc_sys
*I *898:wbs_dat_o[21] O *D CF_SRAM_1024x32_wb_wrapper
*CAP
1 *897:sram_dat_i[21] 0.00800666
2 *898:wbs_dat_o[21] 0.00454631
3 *835:13 0.0258878
4 *835:11 0.0224275
5 *897:sram_dat_i[21] *871:7 0.00582609
6 *897:sram_dat_i[21] *872:7 0.000574157
7 *835:11 *898:wbs_dat_i[23] 0.00921881
8 *835:11 *838:11 0.00516203
9 *835:11 *842:13 3.5703e-05
10 *835:11 *845:27 0.00104713
11 *835:11 *883:19 2.04282e-05
12 *897:sram_dat_i[20] *897:sram_dat_i[21] 0.00444257
13 *898:wbs_adr_i[19] *835:11 0.00183902
14 *898:wbs_adr_i[22] *835:11 0
15 *898:wbs_adr_i[3] *835:11 0.00305818
16 *898:wbs_adr_i[6] *835:11 0.00530138
17 *898:wbs_adr_i[7] *835:11 0.000151725
18 *748:9 *897:sram_dat_i[21] 5.42441e-05
19 *763:9 *897:sram_dat_i[21] 5.04362e-05
20 *802:7 *897:sram_dat_i[21] 0.00708877
21 *803:5 *897:sram_dat_i[21] 0
*RES
1 *898:wbs_dat_o[21] *835:11 35.3687 
2 *835:11 *835:13 56.7227 
3 *835:13 *897:sram_dat_i[21] 45.2535 
*END

*D_NET *836 0.147981
*CONN
*I *897:sram_dat_i[22] I *D soc_sys
*I *898:wbs_dat_o[22] O *D CF_SRAM_1024x32_wb_wrapper
*CAP
1 *897:sram_dat_i[22] 0.00321008
2 *898:wbs_dat_o[22] 0.000733351
3 *836:17 0.0076221
4 *836:15 0.00503735
5 *836:9 0.00453226
6 *836:7 0.00464028
7 *897:sram_dat_i[22] *873:5 0.000200972
8 *897:sram_dat_i[22] *874:15 0.00777006
9 *836:9 *837:9 0.0277671
10 *836:9 *850:11 0.00345503
11 *898:wbs_adr_i[22] *836:7 0
12 *898:wbs_adr_i[23] *836:7 0
13 *732:9 *836:17 0.00115873
14 *742:9 *836:17 0.0137429
15 *792:19 *836:15 0.000184436
16 *793:9 *836:17 0.00454311
17 *793:13 *836:15 0.00029503
18 *793:13 *836:17 0.00458276
19 *796:9 *836:15 2.52553e-05
20 *803:5 *897:sram_dat_i[22] 0.00416693
21 *804:9 *836:15 0.000534599
22 *804:9 *836:17 0.000485243
23 *806:9 *836:17 0.00285214
24 *829:9 *836:9 0.0238524
25 *832:9 *836:9 0.00107378
26 *832:19 *836:15 0
27 *832:21 *836:17 0.0255152
*RES
1 *898:wbs_dat_o[22] *836:7 16.25 
2 *836:7 *836:9 261.75 
3 *836:9 *836:15 18.0625 
4 *836:15 *836:17 324.339 
5 *836:17 *897:sram_dat_i[22] 16.946 
*END

*D_NET *837 0.147636
*CONN
*I *897:sram_dat_i[23] I *D soc_sys
*I *898:wbs_dat_o[23] O *D CF_SRAM_1024x32_wb_wrapper
*CAP
1 *897:sram_dat_i[23] 0.0031576
2 *898:wbs_dat_o[23] 0.000694222
3 *837:13 0.00841742
4 *837:11 0.00525982
5 *837:9 0.00383467
6 *837:7 0.00452889
7 *897:sram_dat_i[23] *897:sram_dat_i[24] 0.00631248
8 *897:sram_dat_i[23] *874:11 5.28663e-05
9 *837:7 *898:wbs_dat_i[23] 0
10 *837:7 *841:29 6.09762e-05
11 *837:9 *853:11 0.003336
12 *837:13 *867:9 0.0100193
13 *837:13 *867:15 0.00199278
14 *837:13 *886:9 0.000214364
15 *898:wbs_adr_i[23] *837:7 0
16 *898:wbs_adr_i[24] *837:7 0
17 *74:79 *897:sram_dat_i[23] 1.85819e-05
18 *118:73 *897:sram_dat_i[23] 0.00030349
19 *143:47 *837:9 0.0291022
20 *690:9 *837:13 0.00775287
21 *721:9 *837:13 0.000792054
22 *725:9 *837:13 0.00256379
23 *804:7 *897:sram_dat_i[23] 0.00381452
24 *805:11 *897:sram_dat_i[23] 9.67859e-05
25 *805:13 *897:sram_dat_i[23] 2.44726e-05
26 *807:9 *837:13 0.0271503
27 *829:9 *837:9 0.000368199
28 *836:9 *837:9 0.0277671
*RES
1 *898:wbs_dat_o[23] *837:7 15.9464 
2 *837:7 *837:9 274.482 
3 *837:9 *837:11 4.5 
4 *837:11 *837:13 340.58 
5 *837:13 *897:sram_dat_i[23] 15.865 
*END

*D_NET *838 0.140896
*CONN
*I *897:sram_dat_i[24] I *D soc_sys
*I *898:wbs_dat_o[24] O *D CF_SRAM_1024x32_wb_wrapper
*CAP
1 *897:sram_dat_i[24] 0.00635136
2 *898:wbs_dat_o[24] 0.00796955
3 *838:13 0.0184029
4 *838:11 0.0200211
5 *897:sram_dat_i[24] *873:5 0.00283575
6 *897:sram_dat_i[24] *875:11 0.000434706
7 *838:11 *898:wbs_dat_i[7] 0.000311896
8 *838:11 *839:12 0.00179966
9 *838:11 *841:29 0.00198631
10 *838:11 *842:19 0.0105961
11 *838:11 *845:27 0.00106771
12 *838:11 *883:19 5.40377e-05
13 *838:13 *839:14 0.0277927
14 *897:sram_dat_i[23] *897:sram_dat_i[24] 0.00631248
15 *898:wbs_adr_i[19] *838:11 0.00396462
16 *898:wbs_adr_i[24] *838:11 0
17 *898:wbs_adr_i[25] *838:11 0
18 *898:wbs_adr_i[2] *838:11 0.000742823
19 *898:wbs_adr_i[3] *838:11 0.0016422
20 *74:79 *897:sram_dat_i[24] 2.03842e-05
21 *748:9 *897:sram_dat_i[24] 3.15988e-05
22 *763:9 *897:sram_dat_i[24] 5.78709e-05
23 *798:13 *838:11 0.000131918
24 *804:7 *897:sram_dat_i[24] 0.000242679
25 *805:11 *897:sram_dat_i[24] 0.000891654
26 *805:13 *897:sram_dat_i[24] 0.0207554
27 *808:21 *838:11 0.00014225
28 *810:27 *838:11 5.11566e-05
29 *834:11 *838:11 0.0011234
30 *835:11 *838:11 0.00516203
*RES
1 *898:wbs_dat_o[24] *838:11 35.0913 
2 *838:11 *838:13 58.2142 
3 *838:13 *897:sram_dat_i[24] 48.3673 
*END

*D_NET *839 0.118665
*CONN
*I *897:sram_dat_i[25] I *D soc_sys
*I *898:wbs_dat_o[25] O *D CF_SRAM_1024x32_wb_wrapper
*CAP
1 *897:sram_dat_i[25] 0.00838452
2 *898:wbs_dat_o[25] 0.00516728
3 *839:14 0.0207872
4 *839:12 0.01757
5 *897:sram_dat_i[25] *875:11 7.33729e-05
6 *897:sram_dat_i[25] *876:5 0.0122638
7 *839:12 *898:wbs_dat_i[11] 0.000558164
8 *839:12 *898:wbs_dat_i[22] 0.00119191
9 *839:12 *898:wbs_dat_i[25] 0.000265091
10 *839:12 *898:wbs_dat_i[2] 0.000571758
11 *839:12 *898:wbs_dat_i[7] 0.000374041
12 *839:12 *841:29 0.000690469
13 *839:12 *842:19 0.00641011
14 *839:12 *845:27 0.00186485
15 *839:12 *880:27 0.00248315
16 *898:wbs_adr_i[10] *839:12 0.000235786
17 *898:wbs_adr_i[20] *839:12 2.08716e-05
18 *898:wbs_adr_i[28] *839:12 0.000236217
19 *898:wbs_adr_i[2] *839:12 0.00083417
20 *898:wbs_adr_i[5] *839:12 0.000795861
21 *74:79 *897:sram_dat_i[25] 0
22 *107:21 *839:12 0
23 *806:9 *897:sram_dat_i[25] 0.00414055
24 *810:27 *839:12 0.000664645
25 *834:11 *839:12 0.00348894
26 *838:11 *839:12 0.00179966
27 *838:13 *839:14 0.0277927
*RES
1 *898:wbs_dat_o[25] *839:12 34.633 
2 *839:12 *839:14 59.173 
3 *839:14 *897:sram_dat_i[25] 38.602 
*END

*D_NET *840 0.15072
*CONN
*I *897:sram_dat_i[26] I *D soc_sys
*I *898:wbs_dat_o[26] O *D CF_SRAM_1024x32_wb_wrapper
*CAP
1 *897:sram_dat_i[26] 0.00145666
2 *898:wbs_dat_o[26] 0.000984154
3 *840:21 0.0100059
4 *840:19 0.00923125
5 *840:9 0.00574095
6 *840:7 0.00604308
7 *897:sram_dat_i[26] *841:35 0.00319118
8 *897:sram_dat_i[26] *877:5 0.00179639
9 *840:7 *898:wbs_dat_i[26] 0
10 *840:7 *898:wbs_dat_i[27] 0
11 *840:9 *898:wbs_dat_i[11] 0.00108383
12 *840:9 *860:15 0.00247357
13 *840:9 *866:21 2.14757e-05
14 *840:9 *868:21 0.0266258
15 *840:19 *857:15 0.000872977
16 *840:19 *859:15 0.000815424
17 *840:19 *868:19 0.00164439
18 *840:21 *851:13 0
19 *840:21 *872:9 0.0274183
20 *898:wbs_adr_i[26] *840:7 0
21 *898:wbs_adr_i[27] *840:7 0
22 *39:29 *840:9 0
23 *110:21 *840:9 0.0327828
24 *649:13 *840:21 0
25 *651:13 *840:21 0
26 *693:9 *840:21 0
27 *701:9 *840:21 0.00330378
28 *769:9 *840:21 0.0122874
29 *807:7 *897:sram_dat_i[26] 0.000174727
30 *817:9 *840:21 0
31 *824:21 *840:21 0.002596
32 *826:19 *840:19 0.000169702
*RES
1 *898:wbs_dat_o[26] *840:7 21.7143 
2 *840:7 *840:9 308.571 
3 *840:9 *840:19 16.374 
4 *840:19 *840:21 358.339 
5 *840:21 *897:sram_dat_i[26] 9.30693 
*END

*D_NET *841 0.111617
*CONN
*I *897:sram_dat_i[27] I *D soc_sys
*I *898:wbs_dat_o[27] O *D CF_SRAM_1024x32_wb_wrapper
*CAP
1 *897:sram_dat_i[27] 0.000272363
2 *898:wbs_dat_o[27] 0.00828388
3 *841:35 0.00711334
4 *841:31 0.025681
5 *841:29 0.0271239
6 *897:sram_dat_i[27] *878:11 0.000518322
7 *897:sram_dat_i[27] *880:13 2.83129e-05
8 *841:29 *898:wbs_dat_i[23] 0
9 *841:29 *898:wbs_dat_i[27] 0
10 *841:29 *898:wbs_dat_i[28] 0
11 *841:29 *842:19 0.00182261
12 *841:29 *845:27 0.000783241
13 *841:29 *880:27 0.000566279
14 *841:31 *874:17 0
15 *841:35 *877:5 0.00909943
16 *841:35 *878:13 0.0119331
17 *897:sram_dat_i[26] *841:35 0.00319118
18 *898:wbs_adr_i[19] *841:29 0.000798803
19 *104:26 *897:sram_dat_i[27] 0.000346486
20 *107:21 *841:29 0.000581887
21 *109:21 *841:29 0.0026137
22 *807:7 *841:35 0.00711629
23 *808:7 *897:sram_dat_i[27] 0.000188554
24 *810:27 *841:29 0.000112928
25 *834:11 *841:29 0.000703323
26 *837:7 *841:29 6.09762e-05
27 *838:11 *841:29 0.00198631
28 *839:12 *841:29 0.000690469
*RES
1 *898:wbs_dat_o[27] *841:29 45.6838 
2 *841:29 *841:31 59.8122 
3 *841:31 *841:35 47.5258 
4 *841:35 *897:sram_dat_i[27] 11.8311 
*END

*D_NET *842 0.120441
*CONN
*I *897:sram_dat_i[28] I *D soc_sys
*I *898:wbs_dat_o[28] O *D CF_SRAM_1024x32_wb_wrapper
*CAP
1 *897:sram_dat_i[28] 0.0074461
2 *898:wbs_dat_o[28] 0.000170086
3 *842:21 0.0267888
4 *842:19 0.0220898
5 *842:13 0.00344087
6 *842:7 0.000863877
7 *897:sram_dat_i[28] *879:5 0.0134067
8 *842:7 *898:wbs_dat_i[28] 0
9 *842:13 *898:wbs_dat_i[21] 2.18342e-05
10 *842:13 *845:9 9.72148e-05
11 *842:13 *880:29 0.00466215
12 *842:19 *880:27 0.00248754
13 *898:wbs_adr_i[19] *842:13 0.000442876
14 *898:wbs_adr_i[29] *842:7 0
15 *809:5 *897:sram_dat_i[28] 0.0146208
16 *810:31 *842:13 0.00440708
17 *834:11 *842:19 0.000630455
18 *835:11 *842:13 3.5703e-05
19 *838:11 *842:19 0.0105961
20 *839:12 *842:19 0.00641011
21 *841:29 *842:19 0.00182261
*RES
1 *898:wbs_dat_o[28] *842:7 6.83929 
2 *842:7 *842:13 49.7589 
3 *842:13 *842:19 23.4784 
4 *842:19 *842:21 61.1971 
5 *842:21 *897:sram_dat_i[28] 45.088 
*END

*D_NET *843 0.12619
*CONN
*I *897:sram_dat_i[29] I *D soc_sys
*I *898:wbs_dat_o[29] O *D CF_SRAM_1024x32_wb_wrapper
*CAP
1 *897:sram_dat_i[29] 0.0153993
2 *898:wbs_dat_o[29] 0.0018803
3 *843:18 0.0153993
4 *843:16 0.0194616
5 *843:14 0.0213419
6 *897:sram_dat_i[29] *879:5 0.00204622
7 *897:sram_dat_i[29] *880:11 0.000174244
8 *897:sram_dat_i[29] *882:5 0
9 *843:14 *898:wbs_dat_i[22] 0.000718679
10 *843:14 *898:wbs_dat_i[26] 0.000309261
11 *843:16 *876:9 0.00397922
12 *107:21 *843:14 0.000422577
13 *799:9 *843:16 0.00385013
14 *803:9 *843:16 0.00647783
15 *805:17 *843:16 0.00579089
16 *810:5 *897:sram_dat_i[29] 0.0187822
17 *812:5 *897:sram_dat_i[29] 0.00980897
18 *834:11 *843:14 0.000347279
*RES
1 *898:wbs_dat_o[29] *843:14 8.288 
2 *843:14 *843:16 61.3037 
3 *843:16 *843:18 3.41 
4 *843:18 *897:sram_dat_i[29] 71.8019 
*END

*D_NET *844 0.106457
*CONN
*I *897:sram_dat_i[2] I *D soc_sys
*I *898:wbs_dat_o[2] O *D CF_SRAM_1024x32_wb_wrapper
*CAP
1 *897:sram_dat_i[2] 0.00313919
2 *898:wbs_dat_o[2] 0.00394406
3 *844:17 0.0101894
4 *844:15 0.0109943
5 *897:sram_dat_i[2] *856:7 3.48982e-05
6 *897:sram_dat_i[2] *881:7 0.000692049
7 *844:15 *898:wbs_sel_i[1] 0.00148779
8 *844:15 *898:wbs_sel_i[2] 0
9 *844:15 *848:17 0.0138638
10 *844:15 *848:21 0.00376081
11 *844:15 *850:11 0.0038438
12 *844:15 *865:21 0.00268746
13 *844:17 *853:13 0.000354638
14 *844:17 *860:9 0
15 *844:17 *861:9 0.00263963
16 *844:17 *890:9 2.93204e-05
17 *898:wbs_adr_i[2] *844:15 0
18 *65:19 *844:17 9.60337e-06
19 *676:15 *897:sram_dat_i[2] 0.00129287
20 *694:9 *844:17 0
21 *720:9 *844:17 0
22 *730:9 *844:17 0.00330831
23 *755:9 *844:17 0.000902396
24 *783:15 *897:sram_dat_i[2] 0.00123772
25 *788:11 *844:15 0.0107227
26 *797:19 *844:17 5.49012e-05
27 *811:7 *897:sram_dat_i[2] 0.00263241
28 *823:11 *844:15 0.000225006
29 *824:19 *844:15 0.00382707
30 *827:9 *844:15 0.000413005
31 *827:19 *844:17 6.55442e-05
32 *828:9 *844:15 0.000445352
33 *830:9 *844:15 0.000131918
34 *831:9 *844:15 0.00289793
35 *832:9 *844:15 0.00014225
36 *833:13 *844:17 0.0204872
*RES
1 *898:wbs_dat_o[2] *844:15 48.0887 
2 *844:15 *844:17 263.018 
3 *844:17 *897:sram_dat_i[2] 12.9823 
*END

*D_NET *845 0.107187
*CONN
*I *897:sram_dat_i[30] I *D soc_sys
*I *898:wbs_dat_o[30] O *D CF_SRAM_1024x32_wb_wrapper
*CAP
1 *897:sram_dat_i[30] 0.00723346
2 *898:wbs_dat_o[30] 0.00023298
3 *845:31 0.00723346
4 *845:29 0.0196562
5 *845:27 0.0215293
6 *845:9 0.00398959
7 *845:7 0.00234943
8 *897:sram_dat_i[30] *882:5 0.0165856
9 *845:7 *898:wbs_dat_i[30] 0
10 *845:7 *898:wbs_dat_i[31] 0
11 *845:9 *898:wbs_dat_i[23] 0.000108229
12 *845:9 *880:29 0.000226324
13 *845:9 *883:21 8.57871e-05
14 *845:27 *898:wbs_dat_i[11] 0.000162748
15 *845:27 *880:17 0.000158261
16 *898:wbs_adr_i[22] *845:9 0.000743107
17 *107:21 *845:27 0.000810373
18 *142:26 *845:9 0.00206799
19 *808:21 *845:9 0
20 *810:31 *845:9 0.00250239
21 *812:5 *897:sram_dat_i[30] 0.0165856
22 *831:7 *845:27 6.58704e-05
23 *835:11 *845:27 0.00104713
24 *838:11 *845:27 0.00106771
25 *839:12 *845:27 0.00186485
26 *841:29 *845:27 0.000783241
27 *842:13 *845:9 9.72148e-05
*RES
1 *898:wbs_dat_o[30] *845:7 7.75 
2 *845:7 *845:9 74.4643 
3 *845:9 *845:27 28.0558 
4 *845:27 *845:29 62.0494 
5 *845:29 *845:31 3.41 
6 *845:31 *897:sram_dat_i[30] 46.8668 
*END

*D_NET *846 0.0986392
*CONN
*I *897:sram_dat_i[31] I *D soc_sys
*I *898:wbs_dat_o[31] O *D CF_SRAM_1024x32_wb_wrapper
*CAP
1 *897:sram_dat_i[31] 0.0114146
2 *898:wbs_dat_o[31] 2.65537e-05
3 *846:12 0.0114146
4 *846:10 0.0197545
5 *846:8 0.019781
6 *897:sram_dat_i[31] *882:5 0.0115849
7 *897:sram_dat_i[31] *883:5 0.0208898
8 *846:8 *898:wbs_dat_i[22] 0.000100938
9 *107:21 *846:8 2.27249e-05
10 *813:11 *897:sram_dat_i[31] 0.00112403
11 *813:13 *897:sram_dat_i[31] 0.00252552
12 *813:17 *846:10 0
*RES
1 *898:wbs_dat_o[31] *846:8 6.9751 
2 *846:8 *846:10 62.5821 
3 *846:10 *846:12 3.41 
4 *846:12 *897:sram_dat_i[31] 69.3516 
*END

*D_NET *847 0.105982
*CONN
*I *897:sram_dat_i[3] I *D soc_sys
*I *898:wbs_dat_o[3] O *D CF_SRAM_1024x32_wb_wrapper
*CAP
1 *897:sram_dat_i[3] 0.00430829
2 *898:wbs_dat_o[3] 0.0033017
3 *847:13 0.00796321
4 *847:11 0.00695662
5 *897:sram_dat_i[3] *884:7 0.00387957
6 *847:11 *898:wbs_dat_i[3] 0
7 *847:11 *898:wbs_sel_i[3] 0
8 *847:13 *855:9 0.0205691
9 *898:wbs_adr_i[1] *847:11 0.0137183
10 *898:wbs_adr_i[6] *847:11 0.0011664
11 *898:wbs_adr_i[7] *847:11 0.0159646
12 *65:13 *847:11 0.00266697
13 *732:9 *847:13 0.00288436
14 *793:9 *847:13 0.0161362
15 *793:13 *847:13 0.00271519
16 *811:7 *897:sram_dat_i[3] 0
17 *811:9 *847:13 4.93137e-05
18 *814:7 *897:sram_dat_i[3] 0.00357237
19 *819:19 *847:13 0.000129811
20 *828:17 *847:13 0
*RES
1 *898:wbs_dat_o[3] *847:11 37.082 
2 *847:11 *847:13 259.982 
3 *847:13 *897:sram_dat_i[3] 16.7298 
*END

*D_NET *848 0.107041
*CONN
*I *897:sram_dat_i[4] I *D soc_sys
*I *898:wbs_dat_o[4] O *D CF_SRAM_1024x32_wb_wrapper
*CAP
1 *897:sram_dat_i[4] 0.00212646
2 *898:wbs_dat_o[4] 0.00393253
3 *848:23 0.00980076
4 *848:21 0.00897411
5 *848:17 0.00523234
6 *897:sram_dat_i[4] *885:7 0.00203115
7 *848:17 *898:wbs_dat_i[4] 0
8 *848:17 *898:wbs_dat_i[5] 0
9 *848:17 *850:11 0.0156977
10 *848:17 *865:21 0.000193062
11 *848:21 *850:11 0.000270118
12 *848:21 *865:21 0.000141343
13 *848:23 *868:9 0.00646003
14 *848:23 *891:9 0
15 *651:21 *848:23 0.00162452
16 *691:9 *848:23 0.00698906
17 *718:9 *848:23 0.000939465
18 *741:25 *848:23 0.00491284
19 *788:11 *848:21 0.00544574
20 *815:7 *897:sram_dat_i[4] 0.00203115
21 *823:11 *848:17 0.000494379
22 *824:19 *848:17 0.00343098
23 *824:19 *848:21 0.000912163
24 *827:9 *848:17 0.000175894
25 *828:9 *848:17 0.000152904
26 *829:19 *848:21 0.0011654
27 *830:9 *848:17 0.00286322
28 *831:9 *848:17 0.000179039
29 *831:9 *848:21 0.000152412
30 *832:9 *848:17 0.00308746
31 *844:15 *848:17 0.0138638
32 *844:15 *848:21 0.00376081
*RES
1 *898:wbs_dat_o[4] *848:17 49.5373 
2 *848:17 *848:21 12.0329 
3 *848:21 *848:23 273.339 
4 *848:23 *897:sram_dat_i[4] 10.3159 
*END

*D_NET *849 0.0925284
*CONN
*I *897:sram_dat_i[5] I *D soc_sys
*I *898:wbs_dat_o[5] O *D CF_SRAM_1024x32_wb_wrapper
*CAP
1 *897:sram_dat_i[5] 0.00500662
2 *898:wbs_dat_o[5] 0.00448531
3 *849:13 0.0130809
4 *849:11 0.0125595
5 *897:sram_dat_i[5] *886:7 0.00361708
6 *849:11 *898:wbs_dat_i[1] 0.000271725
7 *849:11 *898:wbs_dat_i[3] 0.00881621
8 *849:11 *898:wbs_dat_i[5] 0
9 *849:11 *898:wbs_dat_i[6] 0
10 *849:11 *853:11 0.00066728
11 *849:13 *864:9 0
12 *849:13 *864:23 0
13 *849:13 *884:9 0.0216095
14 *898:wbs_adr_i[0] *849:11 0.0122432
15 *898:wbs_adr_i[10] *849:11 0.00361456
16 *898:wbs_adr_i[4] *849:11 0
17 *898:wbs_adr_i[6] *849:11 0
18 *898:wbs_adr_i[7] *849:11 0
19 *683:9 *849:13 0.00307386
20 *815:7 *897:sram_dat_i[5] 0
21 *816:7 *897:sram_dat_i[5] 0.00312552
22 *820:9 *849:13 0
23 *822:11 *849:11 0.000267497
24 *825:19 *849:11 2.1599e-05
25 *833:11 *849:11 6.80387e-05
*RES
1 *898:wbs_dat_o[5] *849:11 43.1643 
2 *849:11 *849:13 273.339 
3 *849:13 *897:sram_dat_i[5] 18.027 
*END

*D_NET *850 0.120004
*CONN
*I *897:sram_dat_i[6] I *D soc_sys
*I *898:wbs_dat_o[6] O *D CF_SRAM_1024x32_wb_wrapper
*CAP
1 *897:sram_dat_i[6] 0.00244907
2 *898:wbs_dat_o[6] 0.000800535
3 *850:13 0.00757158
4 *850:11 0.00913189
5 *850:7 0.00480991
6 *897:sram_dat_i[6] *886:7 0.000214206
7 *897:sram_dat_i[6] *887:7 0.00167185
8 *850:7 *898:wbs_dat_i[6] 0
9 *850:11 *853:11 0.0210413
10 *850:11 *865:19 0.000801833
11 *850:11 *865:21 0.000112662
12 *850:13 *858:9 0.0192753
13 *850:13 *866:9 0
14 *850:13 *887:9 0.0107407
15 *898:wbs_adr_i[7] *850:7 0
16 *67:231 *897:sram_dat_i[6] 0.000744774
17 *143:45 *850:13 9.07058e-05
18 *651:21 *850:13 0.00111629
19 *657:21 *850:13 0
20 *686:9 *850:13 0.0029968
21 *753:9 *850:13 0.00127168
22 *757:9 *850:13 0.000549137
23 *817:7 *897:sram_dat_i[6] 0.00148312
24 *818:7 *897:sram_dat_i[6] 1.4889e-05
25 *823:11 *850:11 0.000280544
26 *824:19 *850:11 0.00487899
27 *827:19 *850:11 0.000237092
28 *829:9 *850:11 0.00320409
29 *829:19 *850:11 0.000845118
30 *830:9 *850:11 0.00014225
31 *831:9 *850:11 0.000129601
32 *832:9 *850:11 0.000131918
33 *836:9 *850:11 0.00345503
34 *844:15 *850:11 0.0038438
35 *848:17 *850:11 0.0156977
36 *848:21 *850:11 0.000270118
*RES
1 *898:wbs_dat_o[6] *850:7 15.6154 
2 *850:7 *850:11 38.2652 
3 *850:11 *850:13 279.411 
4 *850:13 *897:sram_dat_i[6] 10.8203 
*END

*D_NET *851 0.11361
*CONN
*I *897:sram_dat_i[7] I *D soc_sys
*I *898:wbs_dat_o[7] O *D CF_SRAM_1024x32_wb_wrapper
*CAP
1 *897:sram_dat_i[7] 0.00155107
2 *898:wbs_dat_o[7] 0.00137154
3 *851:13 0.0071252
4 *851:11 0.0099691
5 *851:7 0.00576651
6 *897:sram_dat_i[7] *888:7 0.00153794
7 *851:7 *898:wbs_dat_i[8] 0
8 *851:11 *898:wbs_dat_i[11] 0.000509948
9 *851:11 *852:11 0.0234101
10 *851:11 *859:15 0.000158693
11 *851:11 *885:15 0.000576355
12 *851:11 *886:15 0.0179613
13 *851:13 *869:9 0.000241465
14 *898:wbs_adr_i[7] *851:7 0
15 *898:wbs_adr_i[8] *851:7 0
16 *39:37 *851:11 0.00287096
17 *110:13 *851:11 0.000313958
18 *652:33 *851:13 0.00235396
19 *688:9 *851:13 0.00317893
20 *817:9 *851:13 0.0103795
21 *818:7 *897:sram_dat_i[7] 0.00153794
22 *829:21 *851:13 0.0227959
23 *840:21 *851:13 0
*RES
1 *898:wbs_dat_o[7] *851:7 24.7225 
2 *851:7 *851:11 41.5803 
3 *851:11 *851:13 292.161 
4 *851:13 *897:sram_dat_i[7] 8.58627 
*END

*D_NET *852 0.119658
*CONN
*I *897:sram_dat_i[8] I *D soc_sys
*I *898:wbs_dat_o[8] O *D CF_SRAM_1024x32_wb_wrapper
*CAP
1 *897:sram_dat_i[8] 0.00205183
2 *898:wbs_dat_o[8] 0.00139857
3 *852:13 0.00729906
4 *852:11 0.0098171
5 *852:7 0.00596845
6 *897:sram_dat_i[8] *888:7 0.000530807
7 *897:sram_dat_i[8] *889:7 0.00179924
8 *852:7 *898:wbs_dat_i[8] 0
9 *852:7 *898:wbs_dat_i[9] 0
10 *852:11 *898:wbs_dat_i[11] 0.000152279
11 *852:11 *856:15 0.0166315
12 *852:11 *869:13 0.00125083
13 *852:13 *865:9 0.0230276
14 *852:13 *872:9 0.000426463
15 *852:13 *891:9 0.0209485
16 *898:wbs_adr_i[9] *852:7 0
17 *32:21 *852:11 0.00073618
18 *36:9 *852:11 0.000233389
19 *110:13 *852:11 0.00161776
20 *651:13 *852:13 0
21 *709:9 *852:13 0
22 *740:11 *852:13 0.000742735
23 *819:7 *897:sram_dat_i[8] 0.000514773
24 *824:21 *852:13 0.0011011
25 *851:11 *852:11 0.0234101
*RES
1 *898:wbs_dat_o[8] *852:7 25.3296 
2 *852:7 *852:11 41.7244 
3 *852:11 *852:13 296.411 
4 *852:13 *897:sram_dat_i[8] 9.52313 
*END

*D_NET *853 0.134027
*CONN
*I *897:sram_dat_i[9] I *D soc_sys
*I *898:wbs_dat_o[9] O *D CF_SRAM_1024x32_wb_wrapper
*CAP
1 *897:sram_dat_i[9] 0.00287774
2 *898:wbs_dat_o[9] 0.000741022
3 *853:13 0.00756237
4 *853:11 0.0108784
5 *853:7 0.00693479
6 *897:sram_dat_i[9] *890:7 0.00276785
7 *853:7 *898:wbs_dat_i[10] 0
8 *853:7 *898:wbs_dat_i[9] 0
9 *853:11 *898:wbs_dat_i[3] 0.014933
10 *853:13 *861:9 0.00326001
11 *853:13 *890:9 0.02343
12 *898:wbs_adr_i[7] *853:11 0
13 *141:21 *853:11 0.000259202
14 *143:47 *853:11 0.00357739
15 *730:9 *853:13 0
16 *783:17 *853:13 0
17 *792:19 *853:11 0.000248928
18 *820:7 *897:sram_dat_i[9] 0.00278538
19 *823:11 *853:11 0
20 *824:19 *853:11 0.00476071
21 *825:19 *853:11 0.00291373
22 *827:19 *853:11 0.000208829
23 *833:13 *853:13 0.0204887
24 *837:9 *853:11 0.003336
25 *844:17 *853:13 0.000354638
26 *849:11 *853:11 0.00066728
27 *850:11 *853:11 0.0210413
*RES
1 *898:wbs_dat_o[9] *853:7 15.0082 
2 *853:7 *853:11 39.4903 
3 *853:11 *853:13 289.732 
4 *853:13 *897:sram_dat_i[9] 12.8382 
*END

*D_NET *854 0.0743475
*CONN
*I *898:wbs_sel_i[0] I *D CF_SRAM_1024x32_wb_wrapper
*I *897:sram_sel_o[0] O *D soc_sys
*CAP
1 *898:wbs_sel_i[0] 0.0036586
2 *897:sram_sel_o[0] 0.00278708
3 *854:9 0.00807001
4 *854:7 0.00719848
5 *898:wbs_sel_i[0] *898:wbs_dat_i[7] 0.00161416
6 *854:7 *859:7 0.00140073
7 *854:9 *857:9 0.0194173
8 *897:sram_dat_i[0] *854:7 0.000361305
9 *898:wbs_adr_i[5] *898:wbs_sel_i[0] 0.00484262
10 *42:13 *854:9 0.00733372
11 *107:21 *898:wbs_sel_i[0] 0.0147259
12 *540:50 *898:wbs_sel_i[0] 0.000344053
13 *650:25 *854:7 2.37836e-05
14 *651:21 *854:7 0.000111841
15 *800:7 *854:7 0.00245792
*RES
1 *897:sram_sel_o[0] *854:7 11.8293 
2 *854:7 *854:9 239.339 
3 *854:9 *898:wbs_sel_i[0] 33.2998 
*END

*D_NET *855 0.110188
*CONN
*I *898:wbs_sel_i[1] I *D CF_SRAM_1024x32_wb_wrapper
*I *897:sram_sel_o[1] O *D soc_sys
*CAP
1 *898:wbs_sel_i[1] 0.0032851
2 *897:sram_sel_o[1] 0.00472556
3 *855:9 0.00723658
4 *855:7 0.00867705
5 *898:wbs_sel_i[1] *898:wbs_dat_i[11] 0.00201099
6 *898:wbs_sel_i[1] *864:25 0.00299781
7 *855:7 *870:11 0.00146476
8 *855:9 *863:19 0
9 *898:wbs_adr_i[2] *898:wbs_sel_i[1] 0
10 *724:9 *855:9 0.00214754
11 *732:9 *855:9 0.000831941
12 *758:23 *855:7 0.000127359
13 *762:15 *855:7 0.000966336
14 *781:15 *855:7 0.000483703
15 *788:11 *898:wbs_sel_i[1] 0.0121805
16 *792:19 *855:9 0
17 *793:13 *855:9 5.10732e-05
18 *800:7 *855:7 0
19 *806:17 *855:9 0.000129787
20 *811:7 *855:7 0.00362587
21 *811:9 *855:9 0.0203396
22 *823:11 *898:wbs_sel_i[1] 0.0108229
23 *823:15 *898:wbs_sel_i[1] 0.00125002
24 *824:19 *898:wbs_sel_i[1] 0.00115316
25 *825:9 *898:wbs_sel_i[1] 0.000562379
26 *826:9 *898:wbs_sel_i[1] 0.00277065
27 *826:19 *898:wbs_sel_i[1] 0.000289982
28 *828:15 *855:9 0
29 *833:11 *898:wbs_sel_i[1] 0
30 *844:15 *898:wbs_sel_i[1] 0.00148779
31 *847:13 *855:9 0.0205691
*RES
1 *897:sram_sel_o[1] *855:7 16.6577 
2 *855:7 *855:9 262.411 
3 *855:9 *898:wbs_sel_i[1] 44.3461 
*END

*D_NET *856 0.101469
*CONN
*I *898:wbs_sel_i[2] I *D CF_SRAM_1024x32_wb_wrapper
*I *897:sram_sel_o[2] O *D soc_sys
*CAP
1 *898:wbs_sel_i[2] 0.00154196
2 *897:sram_sel_o[2] 0.00373748
3 *856:15 0.00495503
4 *856:9 0.0079456
5 *856:7 0.00827001
6 *898:wbs_sel_i[2] *898:wbs_dat_i[3] 0
7 *856:7 *881:7 0.00129945
8 *856:9 *871:9 0
9 *856:9 *885:9 0
10 *856:15 *869:13 0.00634528
11 *897:sram_dat_i[2] *856:7 3.48982e-05
12 *898:wbs_adr_i[3] *898:wbs_sel_i[2] 0
13 *36:9 *856:15 0.00361599
14 *40:13 *856:9 0.000552536
15 *783:15 *856:7 0.00128144
16 *811:7 *856:7 0
17 *814:7 *856:7 0.00326795
18 *815:9 *856:9 0.0210189
19 *818:9 *856:9 0.0209714
20 *844:15 *898:wbs_sel_i[2] 0
21 *852:11 *856:15 0.0166315
*RES
1 *897:sram_sel_o[2] *856:7 14.5678 
2 *856:7 *856:9 275.161 
3 *856:9 *856:15 33.2434 
4 *856:15 *898:wbs_sel_i[2] 22.5268 
*END

*D_NET *857 0.108305
*CONN
*I *898:wbs_sel_i[3] I *D CF_SRAM_1024x32_wb_wrapper
*I *897:sram_sel_o[3] O *D soc_sys
*CAP
1 *898:wbs_sel_i[3] 0.00128221
2 *897:sram_sel_o[3] 0.00260939
3 *857:15 0.00478331
4 *857:9 0.00898013
5 *857:7 0.00808843
6 *898:wbs_sel_i[3] *898:wbs_dat_i[3] 0
7 *898:wbs_sel_i[3] *898:wbs_dat_i[4] 0
8 *857:7 *884:7 0.00243875
9 *857:9 *866:9 0.000146174
10 *857:15 *898:wbs_dat_i[11] 0.00267497
11 *857:15 *859:15 0.0161175
12 *857:15 *860:15 0.0180747
13 *857:15 *862:13 0.00333283
14 *857:15 *863:21 0.00358723
15 *857:15 *868:19 0.000179821
16 *857:15 *885:15 0.000265475
17 *898:wbs_adr_i[4] *898:wbs_sel_i[3] 0
18 *42:13 *857:9 0
19 *142:24 *857:9 0
20 *685:9 *857:9 0.00232861
21 *815:7 *857:7 0.00243947
22 *827:21 *857:9 0.0106861
23 *840:19 *857:15 0.000872977
24 *847:11 *898:wbs_sel_i[3] 0
25 *854:9 *857:9 0.0194173
*RES
1 *897:sram_sel_o[3] *857:7 11.7572 
2 *857:7 *857:9 276.375 
3 *857:9 *857:15 37.4953 
4 *857:15 *898:wbs_sel_i[3] 18.8839 
*END

*D_NET *858 0.091428
*CONN
*I *898:wbs_stb_i I *D CF_SRAM_1024x32_wb_wrapper
*I *897:sram_stb_o O *D soc_sys
*CAP
1 *898:wbs_stb_i 0.00366977
2 *897:sram_stb_o 0.00263505
3 *858:9 0.00780974
4 *858:7 0.00677502
5 *898:wbs_stb_i *898:wbs_dat_i[2] 0.00475183
6 *898:wbs_stb_i *898:wbs_dat_i[7] 0.00348902
7 *898:wbs_stb_i *898:wbs_we_i 0
8 *858:7 *891:7 0.00168758
9 *897:sram_dat_i[0] *858:7 0
10 *898:wbs_adr_i[2] *898:wbs_stb_i 0.012724
11 *898:wbs_adr_i[3] *898:wbs_stb_i 4.97144e-05
12 *898:wbs_cyc_i *898:wbs_stb_i 2.06702e-05
13 *109:21 *898:wbs_stb_i 0.00234396
14 *114:29 *898:wbs_stb_i 0.00246908
15 *540:58 *898:wbs_stb_i 0.00212947
16 *651:21 *858:9 0.00111629
17 *657:21 *858:9 0.00527604
18 *753:9 *858:9 0.00549511
19 *757:9 *858:9 0.000594195
20 *808:19 *898:wbs_stb_i 0.0033815
21 *819:19 *898:wbs_stb_i 0.00367872
22 *821:7 *858:7 0.00205599
23 *850:13 *858:9 0.0192753
*RES
1 *897:sram_stb_o *858:7 10.8924 
2 *858:7 *858:9 238.125 
3 *858:9 *898:wbs_stb_i 33.5113 
*END

*D_NET *859 0.0934392
*CONN
*I *898:wbs_dat_i[0] I *D CF_SRAM_1024x32_wb_wrapper
*I *897:sram_dat_o[0] O *D soc_sys
*CAP
1 *898:wbs_dat_i[0] 0.00137949
2 *897:sram_dat_o[0] 0.00142769
3 *859:15 0.00491193
4 *859:9 0.00859784
5 *859:7 0.0064931
6 *898:wbs_dat_i[0] *898:wbs_we_i 0
7 *859:9 *869:9 0.00544656
8 *859:9 *881:9 0.019447
9 *859:15 *885:15 0.0147742
10 *897:sram_dat_i[0] *859:7 0.00130521
11 *898:wbs_adr_i[0] *898:wbs_dat_i[0] 0
12 *39:37 *859:15 0.00164482
13 *650:25 *859:7 0.000199758
14 *650:25 *859:9 0.00165695
15 *736:9 *859:9 0.000651966
16 *747:9 *859:9 0.00644236
17 *788:13 *859:9 0.000567963
18 *822:11 *898:wbs_dat_i[0] 0
19 *840:19 *859:15 0.000815424
20 *851:11 *859:15 0.000158693
21 *854:7 *859:7 0.00140073
22 *857:15 *859:15 0.0161175
*RES
1 *897:sram_dat_o[0] *859:7 8.15387 
2 *859:7 *859:9 261.196 
3 *859:9 *859:15 36.054 
4 *859:15 *898:wbs_dat_i[0] 19.4911 
*END

*D_NET *860 0.114222
*CONN
*I *898:wbs_dat_i[10] I *D CF_SRAM_1024x32_wb_wrapper
*I *897:sram_dat_o[10] O *D soc_sys
*CAP
1 *898:wbs_dat_i[10] 0.00118089
2 *897:sram_dat_o[10] 0.0040542
3 *860:15 0.00870678
4 *860:9 0.0168613
5 *860:7 0.0133896
6 *860:7 *861:7 0
7 *860:7 *890:7 0
8 *860:9 *885:9 0.000161225
9 *860:15 *898:wbs_dat_i[11] 0.00718886
10 *860:15 *862:13 0.000628229
11 *860:15 *863:21 0.0005826
12 *860:15 *866:21 0.00420704
13 *860:15 *867:17 0.00390148
14 *860:15 *868:19 0.000392671
15 *860:15 *868:21 0.00284549
16 *897:sram_dat_i[10] *860:7 0.00201715
17 *897:sram_dat_i[11] *860:7 0.000226688
18 *897:sram_dat_i[12] *860:7 0
19 *898:wbs_adr_i[10] *898:wbs_dat_i[10] 0.000118461
20 *110:21 *860:15 0.000236981
21 *679:9 *860:9 0.00498729
22 *680:9 *860:9 0.00489112
23 *694:9 *860:9 0
24 *702:9 *860:9 0
25 *710:9 *860:9 0.000708339
26 *738:9 *860:9 0.0013712
27 *791:7 *860:7 0.00101674
28 *820:7 *860:7 0
29 *823:11 *898:wbs_dat_i[10] 0
30 *823:11 *860:15 0.0017606
31 *823:15 *860:15 0.00172589
32 *825:21 *860:9 0.0105135
33 *840:9 *860:15 0.00247357
34 *844:17 *860:9 0
35 *853:7 *898:wbs_dat_i[10] 0
36 *857:15 *860:15 0.0180747
*RES
1 *897:sram_dat_o[10] *860:7 13.703 
2 *860:7 *860:9 301.268 
3 *860:9 *860:15 42.7562 
4 *860:15 *898:wbs_dat_i[10] 18.2768 
*END

*D_NET *861 0.125707
*CONN
*I *898:wbs_dat_i[11] I *D CF_SRAM_1024x32_wb_wrapper
*I *897:sram_dat_o[11] O *D soc_sys
*CAP
1 *898:wbs_dat_i[11] 0.010673
2 *897:sram_dat_o[11] 0.00338333
3 *861:9 0.0248259
4 *861:7 0.0175362
5 *898:wbs_dat_i[11] *866:19 0.000250122
6 *898:wbs_dat_i[11] *868:19 0.000258115
7 *898:wbs_dat_i[11] *868:21 0.00100511
8 *898:wbs_dat_i[11] *869:13 0
9 *898:wbs_dat_i[11] *885:15 0.00313125
10 *898:wbs_dat_i[11] *886:15 0.00034593
11 *861:9 *890:9 0.00219914
12 *897:sram_dat_i[11] *861:7 0.00162161
13 *897:sram_dat_i[12] *861:7 0.000641569
14 *898:wbs_adr_i[10] *898:wbs_dat_i[11] 0.000354474
15 *898:wbs_sel_i[1] *898:wbs_dat_i[11] 0.00201099
16 *39:29 *898:wbs_dat_i[11] 0.000521547
17 *107:21 *898:wbs_dat_i[11] 0
18 *710:9 *861:9 0.00246827
19 *729:9 *861:9 0.011945
20 *755:9 *861:9 0.00511249
21 *788:11 *898:wbs_dat_i[11] 0.00130978
22 *792:7 *861:7 0.00127556
23 *823:11 *898:wbs_dat_i[11] 0.00280101
24 *823:15 *898:wbs_dat_i[11] 0.00123518
25 *824:19 *898:wbs_dat_i[11] 0.00817755
26 *826:19 *898:wbs_dat_i[11] 0.000635869
27 *833:13 *861:9 0.00375797
28 *839:12 *898:wbs_dat_i[11] 0.000558164
29 *840:9 *898:wbs_dat_i[11] 0.00108383
30 *844:17 *861:9 0.00263963
31 *845:27 *898:wbs_dat_i[11] 0.000162748
32 *851:11 *898:wbs_dat_i[11] 0.000509948
33 *852:11 *898:wbs_dat_i[11] 0.000152279
34 *853:13 *861:9 0.00326001
35 *857:15 *898:wbs_dat_i[11] 0.00267497
36 *860:7 *861:7 0
37 *860:15 *898:wbs_dat_i[11] 0.00718886
*RES
1 *897:sram_dat_o[11] *861:7 12.8022 
2 *861:7 *861:9 53.2071 
3 *861:9 *898:wbs_dat_i[11] 48.8922 
*END

*D_NET *862 0.115398
*CONN
*I *898:wbs_dat_i[12] I *D CF_SRAM_1024x32_wb_wrapper
*I *897:sram_dat_o[12] O *D soc_sys
*CAP
1 *898:wbs_dat_i[12] 0.00121153
2 *897:sram_dat_o[12] 0.00341252
3 *862:13 0.00540069
4 *862:11 0.00418916
5 *862:9 0.0052602
6 *862:7 0.00867273
7 *862:9 *871:9 0.000135038
8 *862:9 *889:9 0.0234753
9 *862:13 *863:21 0.0215372
10 *862:13 *866:21 0.000167179
11 *862:13 *867:17 2.38501e-05
12 *897:sram_dat_i[12] *862:7 0.0027454
13 *898:wbs_adr_i[12] *898:wbs_dat_i[12] 0
14 *39:29 *862:13 0.00586759
15 *713:9 *862:9 0.000619348
16 *761:15 *862:7 0.000778557
17 *770:15 *862:7 0.000410046
18 *793:7 *862:7 0.0033498
19 *825:7 *898:wbs_dat_i[12] 0
20 *830:13 *862:9 0.0241806
21 *857:15 *862:13 0.00333283
22 *860:15 *862:13 0.000628229
*RES
1 *897:sram_dat_o[12] *862:7 15.1443 
2 *862:7 *862:9 309.009 
3 *862:9 *862:11 4.5 
4 *862:11 *862:13 208.768 
5 *862:13 *898:wbs_dat_i[12] 23.2321 
*END

*D_NET *863 0.132049
*CONN
*I *898:wbs_dat_i[13] I *D CF_SRAM_1024x32_wb_wrapper
*I *897:sram_dat_o[13] O *D soc_sys
*CAP
1 *898:wbs_dat_i[13] 0.00116291
2 *897:sram_dat_o[13] 0.00460912
3 *863:21 0.00398124
4 *863:19 0.00360863
5 *863:9 0.00454651
6 *863:7 0.00836534
7 *863:7 *864:7 0
8 *863:19 *867:15 0.00139007
9 *863:21 *867:17 0.0221843
10 *897:sram_dat_i[13] *863:7 0.000811199
11 *897:sram_dat_i[14] *863:7 0.000524664
12 *898:wbs_adr_i[13] *898:wbs_dat_i[13] 0
13 *39:29 *863:21 6.41738e-05
14 *540:58 *863:19 4.00679e-05
15 *721:9 *863:9 0.00394342
16 *793:7 *863:7 0.0012992
17 *794:7 *863:7 0.00123646
18 *802:9 *863:19 0.000504663
19 *826:7 *898:wbs_dat_i[13] 0
20 *828:15 *863:19 1.60506e-05
21 *828:17 *863:9 0.023914
22 *831:13 *863:9 0.0239114
23 *831:13 *863:19 0.000228399
24 *855:9 *863:19 0
25 *857:15 *863:21 0.00358723
26 *860:15 *863:21 0.0005826
27 *862:13 *863:21 0.0215372
*RES
1 *897:sram_dat_o[13] *863:7 16.2253 
2 *863:7 *863:9 293.527 
3 *863:9 *863:19 33.8036 
4 *863:19 *863:21 210 
5 *863:21 *898:wbs_dat_i[13] 22.9286 
*END

*D_NET *864 0.128836
*CONN
*I *898:wbs_dat_i[14] I *D CF_SRAM_1024x32_wb_wrapper
*I *897:sram_dat_o[14] O *D soc_sys
*CAP
1 *898:wbs_dat_i[14] 0.000891505
2 *897:sram_dat_o[14] 0.00517519
3 *864:25 0.00366515
4 *864:23 0.00384851
5 *864:9 0.00514689
6 *864:7 0.00924723
7 *897:sram_dat_i[14] *864:7 0.00232557
8 *897:sram_dat_i[15] *864:7 0.000996781
9 *898:wbs_adr_i[14] *898:wbs_dat_i[14] 0
10 *898:wbs_sel_i[1] *864:25 0.00299781
11 *110:21 *864:25 0
12 *683:9 *864:9 0
13 *793:7 *864:7 0
14 *795:7 *864:7 0.00111168
15 *796:7 *864:7 0
16 *796:9 *864:9 0.0240798
17 *796:9 *864:23 2.00368e-05
18 *806:9 *864:9 0.00158497
19 *820:9 *864:9 0.0223641
20 *820:19 *864:23 0.000281368
21 *823:11 *864:25 0.000490889
22 *826:7 *898:wbs_dat_i[14] 0
23 *826:9 *864:25 0.0216981
24 *827:7 *898:wbs_dat_i[14] 0
25 *828:9 *864:25 0.0221771
26 *832:19 *864:23 0.000733457
27 *849:13 *864:9 0
28 *849:13 *864:23 0
29 *863:7 *864:7 0
*RES
1 *897:sram_dat_o[14] *864:7 17.3063 
2 *864:7 *864:9 295.196 
3 *864:9 *864:23 23.4375 
4 *864:23 *864:25 208.768 
5 *864:25 *898:wbs_dat_i[14] 18.6786 
*END

*D_NET *865 0.134946
*CONN
*I *898:wbs_dat_i[15] I *D CF_SRAM_1024x32_wb_wrapper
*I *897:sram_dat_o[15] O *D soc_sys
*CAP
1 *898:wbs_dat_i[15] 0.000831888
2 *897:sram_dat_o[15] 0.00161569
3 *865:21 0.00439218
4 *865:19 0.00408662
5 *865:9 0.00581589
6 *865:7 0.00690526
7 *865:9 *872:9 0.0251517
8 *897:sram_dat_i[15] *865:7 0.000503192
9 *898:wbs_adr_i[15] *898:wbs_dat_i[15] 0
10 *67:223 *865:7 0.00250869
11 *141:13 *865:19 0.00131594
12 *143:47 *865:21 0
13 *651:13 *865:9 0
14 *740:11 *865:9 0.000803497
15 *792:19 *865:19 3.19604e-05
16 *796:7 *865:7 0.00183017
17 *824:19 *865:19 0.000323632
18 *824:21 *865:9 0.0015313
19 *827:7 *898:wbs_dat_i[15] 0
20 *827:9 *865:21 0.0248921
21 *827:19 *865:19 0.000295767
22 *828:7 *898:wbs_dat_i[15] 0
23 *828:9 *865:21 0.000240748
24 *829:9 *865:21 0.000496758
25 *829:19 *865:19 0.000556333
26 *830:9 *865:21 0.000342503
27 *831:9 *865:21 0.0235105
28 *844:15 *865:21 0.00268746
29 *848:17 *865:21 0.000193062
30 *848:21 *865:21 0.000141343
31 *850:11 *865:19 0.000801833
32 *850:11 *865:21 0.000112662
33 *852:13 *865:9 0.0230276
*RES
1 *897:sram_dat_o[15] *865:7 9.45107 
2 *865:7 *865:9 312.804 
3 *865:9 *865:19 15.756 
4 *865:19 *865:21 244.911 
5 *865:21 *898:wbs_dat_i[15] 17.7679 
*END

*D_NET *866 0.134649
*CONN
*I *898:wbs_dat_i[16] I *D CF_SRAM_1024x32_wb_wrapper
*I *897:sram_dat_o[16] O *D soc_sys
*CAP
1 *898:wbs_dat_i[16] 0.0010587
2 *897:sram_dat_o[16] 0.00254563
3 *866:21 0.00430588
4 *866:19 0.00369299
5 *866:9 0.0074689
6 *866:7 0.00956872
7 *866:9 *888:11 0.00226252
8 *866:19 *868:19 0.00173409
9 *866:21 *867:17 0.0241771
10 *866:21 *868:21 0.0253192
11 *897:sram_dat_i[16] *866:7 0.00155874
12 *897:sram_dat_i[17] *866:7 0.000573794
13 *898:wbs_adr_i[16] *898:wbs_dat_i[16] 0
14 *898:wbs_dat_i[11] *866:19 0.000250122
15 *39:29 *866:21 0
16 *141:19 *866:9 1.90936e-05
17 *657:21 *866:9 0
18 *685:9 *866:9 0.000360635
19 *692:9 *866:9 0.0164283
20 *737:9 *866:9 0.000740393
21 *796:7 *866:7 0.000387209
22 *797:7 *866:7 0.00114651
23 *823:15 *866:19 0.0017106
24 *827:21 *866:9 0.0247985
25 *828:7 *898:wbs_dat_i[16] 0
26 *829:7 *898:wbs_dat_i[16] 0
27 *840:9 *866:21 2.14757e-05
28 *850:13 *866:9 0
29 *857:9 *866:9 0.000146174
30 *860:15 *866:21 0.00420704
31 *862:13 *866:21 0.000167179
*RES
1 *897:sram_dat_o[16] *866:7 11.541 
2 *866:7 *866:9 321.911 
3 *866:9 *866:19 14.9174 
4 *866:19 *866:21 238.75 
5 *866:21 *898:wbs_dat_i[16] 22.3214 
*END

*D_NET *867 0.133104
*CONN
*I *898:wbs_dat_i[17] I *D CF_SRAM_1024x32_wb_wrapper
*I *897:sram_dat_o[17] O *D soc_sys
*CAP
1 *898:wbs_dat_i[17] 0.00107327
2 *897:sram_dat_o[17] 0.00358288
3 *867:17 0.00461717
4 *867:15 0.00442137
5 *867:9 0.00517284
6 *867:7 0.00787825
7 *867:15 *886:9 0.000147405
8 *867:17 *868:21 0.000355166
9 *897:sram_dat_i[17] *867:7 0.0035752
10 *898:wbs_adr_i[17] *898:wbs_dat_i[17] 0
11 *39:29 *867:17 0
12 *690:9 *867:9 0.00611329
13 *721:9 *867:9 0.00404228
14 *796:7 *867:7 0
15 *798:7 *867:7 0.00385585
16 *802:9 *867:9 0.0239834
17 *802:9 *867:15 0.000596609
18 *829:7 *898:wbs_dat_i[17] 0
19 *830:7 *898:wbs_dat_i[17] 0
20 *837:13 *867:9 0.0100193
21 *837:13 *867:15 0.00199278
22 *860:15 *867:17 0.00390148
23 *862:13 *867:17 2.38501e-05
24 *863:19 *867:15 0.00139007
25 *863:21 *867:17 0.0221843
26 *866:21 *867:17 0.0241771
*RES
1 *897:sram_dat_o[17] *867:7 16.0091 
2 *867:7 *867:9 294.411 
3 *867:9 *867:15 37.3661 
4 *867:15 *867:17 235.054 
5 *867:17 *898:wbs_dat_i[17] 22.625 
*END

*D_NET *868 0.134298
*CONN
*I *898:wbs_dat_i[18] I *D CF_SRAM_1024x32_wb_wrapper
*I *897:sram_dat_o[18] O *D soc_sys
*CAP
1 *898:wbs_dat_i[18] 0.00102898
2 *897:sram_dat_o[18] 0.00197808
3 *868:21 0.00438572
4 *868:19 0.00390261
5 *868:9 0.0069013
6 *868:7 0.00833352
7 *868:9 *887:9 5.28924e-05
8 *897:sram_dat_i[18] *868:7 0.00217782
9 *898:wbs_dat_i[11] *868:19 0.000258115
10 *898:wbs_dat_i[11] *868:21 0.00100511
11 *651:21 *868:9 0.00285672
12 *675:9 *868:9 0.00755343
13 *686:9 *868:9 0.00087196
14 *741:25 *868:9 0.000851
15 *799:5 *868:7 0.00217782
16 *823:15 *868:19 0.000371646
17 *823:17 *868:9 0.0240197
18 *826:19 *868:19 1.47001e-05
19 *830:7 *898:wbs_dat_i[18] 0
20 *831:7 *898:wbs_dat_i[18] 0
21 *840:9 *868:21 0.0266258
22 *840:19 *868:19 0.00164439
23 *848:23 *868:9 0.00646003
24 *857:15 *868:19 0.000179821
25 *860:15 *868:19 0.000392671
26 *860:15 *868:21 0.00284549
27 *866:19 *868:19 0.00173409
28 *866:21 *868:21 0.0253192
29 *867:17 *868:21 0.000355166
*RES
1 *897:sram_dat_o[18] *868:7 10.5321 
2 *868:7 *868:9 329.804 
3 *868:9 *868:19 15.3913 
4 *868:19 *868:21 250.661 
5 *868:21 *898:wbs_dat_i[18] 22.0179 
*END

*D_NET *869 0.148831
*CONN
*I *898:wbs_dat_i[19] I *D CF_SRAM_1024x32_wb_wrapper
*I *897:sram_dat_o[19] O *D soc_sys
*CAP
1 *898:wbs_dat_i[19] 0.00139415
2 *897:sram_dat_o[19] 0.00149208
3 *869:13 0.00884401
4 *869:11 0.00744986
5 *869:9 0.00681382
6 *869:7 0.0083059
7 *869:13 *871:13 0.0285604
8 *869:13 *887:15 0.00014196
9 *869:13 *890:15 0.000800552
10 *897:sram_dat_i[19] *869:7 0.00142077
11 *898:wbs_dat_i[11] *869:13 0
12 *32:21 *869:13 2.24813e-05
13 *33:13 *869:13 0.00607847
14 *33:21 *869:13 0.00239934
15 *34:13 *869:13 0.0056199
16 *35:13 *869:13 0.00488536
17 *36:9 *869:13 0.000929309
18 *37:9 *869:13 0.00738112
19 *38:17 *869:13 0.00378058
20 *646:18 *869:9 0.0175116
21 *650:25 *869:9 0.00227649
22 *681:9 *869:9 0.00732545
23 *684:9 *869:9 0.00703694
24 *747:9 *869:9 0.00272957
25 *801:11 *869:7 0.00142077
26 *829:21 *869:9 0.000926139
27 *831:7 *898:wbs_dat_i[19] 0
28 *832:7 *898:wbs_dat_i[19] 0
29 *851:13 *869:9 0.000241465
30 *852:11 *869:13 0.00125083
31 *856:15 *869:13 0.00634528
32 *859:9 *869:9 0.00544656
*RES
1 *897:sram_dat_o[19] *869:7 8.37007 
2 *869:7 *869:9 340.125 
3 *869:9 *869:11 3.41 
4 *869:11 *869:13 50.9981 
5 *869:13 *898:wbs_dat_i[19] 27.7582 
*END

*D_NET *870 0.106597
*CONN
*I *898:wbs_dat_i[1] I *D CF_SRAM_1024x32_wb_wrapper
*I *897:sram_dat_o[1] O *D soc_sys
*CAP
1 *898:wbs_dat_i[1] 0.00346748
2 *897:sram_dat_o[1] 0.00323132
3 *870:13 0.00694328
4 *870:11 0.00670712
5 *870:13 *885:9 0.0206154
6 *897:sram_dat_i[1] *870:11 0.00434395
7 *898:wbs_adr_i[0] *898:wbs_dat_i[1] 5.44456e-05
8 *898:wbs_adr_i[1] *898:wbs_dat_i[1] 0
9 *726:9 *870:13 0.00128837
10 *762:15 *870:11 0.00095049
11 *781:15 *870:11 0.0011861
12 *793:17 *898:wbs_dat_i[1] 0.00248793
13 *796:13 *898:wbs_dat_i[1] 0.00268278
14 *800:7 *870:11 0.000187104
15 *816:9 *870:13 0.0198712
16 *822:11 *898:wbs_dat_i[1] 0.0148548
17 *822:13 *870:13 0.000365368
18 *833:11 *898:wbs_dat_i[1] 0.015623
19 *849:11 *898:wbs_dat_i[1] 0.000271725
20 *855:7 *870:11 0.00146476
*RES
1 *897:sram_dat_o[1] *870:11 14.1918 
2 *870:11 *870:13 253.911 
3 *870:13 *898:wbs_dat_i[1] 39.6133 
*END

*D_NET *871 0.148521
*CONN
*I *898:wbs_dat_i[20] I *D CF_SRAM_1024x32_wb_wrapper
*I *897:sram_dat_o[20] O *D soc_sys
*CAP
1 *898:wbs_dat_i[20] 0.00142245
2 *897:sram_dat_o[20] 0.00291179
3 *871:13 0.00606342
4 *871:9 0.0145663
5 *871:7 0.0128371
6 *898:wbs_dat_i[20] *880:27 2.69257e-05
7 *871:9 *889:9 0
8 *871:13 *872:13 0.00211666
9 *871:13 *890:15 0.021623
10 *897:sram_dat_i[20] *871:7 0.00333476
11 *897:sram_dat_i[21] *871:7 0.00582609
12 *898:wbs_adr_i[21] *898:wbs_dat_i[20] 0
13 *32:13 *871:13 0.00632084
14 *32:19 *871:9 0
15 *38:9 *871:13 0.0117235
16 *38:15 *871:9 0
17 *682:9 *871:9 0.00754603
18 *744:9 *871:9 0.0128972
19 *802:7 *871:7 0.00056032
20 *818:9 *871:9 0
21 *830:13 *871:9 0.0100489
22 *832:7 *898:wbs_dat_i[20] 0
23 *856:9 *871:9 0
24 *862:9 *871:9 0.000135038
25 *869:13 *871:13 0.0285604
*RES
1 *897:sram_dat_o[20] *871:7 14.9281 
2 *871:7 *871:9 344.375 
3 *871:9 *871:13 48.9311 
4 *871:13 *898:wbs_dat_i[20] 28.3654 
*END

*D_NET *872 0.147944
*CONN
*I *898:wbs_dat_i[21] I *D CF_SRAM_1024x32_wb_wrapper
*I *897:sram_dat_o[21] O *D soc_sys
*CAP
1 *898:wbs_dat_i[21] 0.00154351
2 *897:sram_dat_o[21] 0.00180929
3 *872:13 0.00725952
4 *872:11 0.00571601
5 *872:9 0.00616487
6 *872:7 0.00797415
7 *872:9 *891:9 0.000135277
8 *872:13 *887:15 0.00163534
9 *872:13 *889:15 0.0207593
10 *872:13 *890:15 0.000271725
11 *872:13 *891:15 0.017429
12 *897:sram_dat_i[21] *872:7 0.000574157
13 *898:wbs_adr_i[21] *898:wbs_dat_i[21] 0
14 *31:13 *872:13 0.00737836
15 *33:21 *872:13 0.00024111
16 *66:13 *872:13 0.00918117
17 *651:13 *872:9 0
18 *740:11 *872:9 0.000718291
19 *802:7 *872:7 0.000538086
20 *803:5 *872:7 0.00182277
21 *824:21 *872:9 0.00165695
22 *840:21 *872:9 0.0274183
23 *842:13 *898:wbs_dat_i[21] 2.18342e-05
24 *852:13 *872:9 0.000426463
25 *865:9 *872:9 0.0251517
26 *871:13 *872:13 0.00211666
*RES
1 *897:sram_dat_o[21] *872:7 9.379 
2 *872:7 *872:9 350.446 
3 *872:9 *872:11 3.41 
4 *872:11 *872:13 52.1512 
5 *872:13 *898:wbs_dat_i[21] 30.7939 
*END

*D_NET *873 0.130206
*CONN
*I *898:wbs_dat_i[22] I *D CF_SRAM_1024x32_wb_wrapper
*I *897:sram_dat_o[22] O *D soc_sys
*CAP
1 *898:wbs_dat_i[22] 0.00180514
2 *897:sram_dat_o[22] 0.0146539
3 *873:9 0.0117381
4 *873:7 0.00993298
5 *873:5 0.0146539
6 *898:wbs_dat_i[22] *898:wbs_dat_i[24] 0.000100938
7 *898:wbs_dat_i[22] *898:wbs_dat_i[25] 0.00587983
8 *898:wbs_dat_i[22] *898:wbs_dat_i[26] 0.000198561
9 *873:5 *874:15 0.02724
10 *873:5 *875:13 0.00427643
11 *873:9 *877:9 0.0265716
12 *897:sram_dat_i[22] *873:5 0.000200972
13 *897:sram_dat_i[24] *873:5 0.00283575
14 *898:wbs_adr_i[28] *898:wbs_dat_i[22] 0.00019474
15 *898:wbs_adr_i[31] *898:wbs_dat_i[22] 0.000100938
16 *74:79 *873:5 0
17 *107:21 *898:wbs_dat_i[22] 0.00167079
18 *803:5 *873:5 0.00193343
19 *804:7 *873:5 0.00420668
20 *805:13 *873:5 0
21 *839:12 *898:wbs_dat_i[22] 0.00119191
22 *843:14 *898:wbs_dat_i[22] 0.000718679
23 *846:8 *898:wbs_dat_i[22] 0.000100938
*RES
1 *897:sram_dat_o[22] *873:5 72.6307 
2 *873:5 *873:7 3.41 
3 *873:7 *873:9 325.554 
4 *873:9 *898:wbs_dat_i[22] 20.3435 
*END

*D_NET *874 0.118303
*CONN
*I *898:wbs_dat_i[23] I *D CF_SRAM_1024x32_wb_wrapper
*I *897:sram_dat_o[23] O *D soc_sys
*CAP
1 *898:wbs_dat_i[23] 0.00498773
2 *897:sram_dat_o[23] 0.000339661
3 *874:17 0.0231675
4 *874:15 0.0236536
5 *874:11 0.00581342
6 *898:wbs_dat_i[23] *898:wbs_dat_i[27] 0.00290951
7 *874:15 *875:13 0.0110101
8 *897:sram_dat_i[22] *874:15 0.00777006
9 *897:sram_dat_i[23] *874:11 5.28663e-05
10 *898:wbs_adr_i[19] *898:wbs_dat_i[23] 0.000106403
11 *898:wbs_adr_i[22] *898:wbs_dat_i[23] 0.000935938
12 *898:wbs_adr_i[23] *898:wbs_dat_i[23] 0
13 *104:26 *874:11 0.000162046
14 *118:73 *874:11 0.000322978
15 *712:9 *874:11 0.000168638
16 *803:5 *874:15 9.20282e-05
17 *805:11 *874:11 0.000196322
18 *824:19 *898:wbs_dat_i[23] 4.73891e-05
19 *835:11 *898:wbs_dat_i[23] 0.00921881
20 *837:7 *898:wbs_dat_i[23] 0
21 *841:29 *898:wbs_dat_i[23] 0
22 *841:31 *874:17 0
23 *845:9 *898:wbs_dat_i[23] 0.000108229
24 *873:5 *874:15 0.02724
*RES
1 *897:sram_dat_o[23] *874:11 11.9031 
2 *874:11 *874:15 46.4448 
3 *874:15 *874:17 57.8946 
4 *874:17 *898:wbs_dat_i[23] 27.1117 
*END

*D_NET *875 0.10855
*CONN
*I *898:wbs_dat_i[24] I *D CF_SRAM_1024x32_wb_wrapper
*I *897:sram_dat_o[24] O *D soc_sys
*CAP
1 *898:wbs_dat_i[24] 2.65537e-05
2 *897:sram_dat_o[24] 0.00521045
3 *875:17 0.0133682
4 *875:15 0.0133417
5 *875:13 0.00492457
6 *875:11 0.010135
7 *897:sram_dat_i[24] *875:11 0.000434706
8 *897:sram_dat_i[25] *875:11 7.33729e-05
9 *898:wbs_dat_i[22] *898:wbs_dat_i[24] 0.000100938
10 *74:79 *875:11 0.000899714
11 *107:21 *898:wbs_dat_i[24] 2.27249e-05
12 *683:9 *875:11 0
13 *742:9 *875:11 0
14 *803:5 *875:13 0.030637
15 *804:9 *875:11 0
16 *806:9 *875:11 0.00390979
17 *809:9 *875:17 0.0101787
18 *873:5 *875:13 0.00427643
19 *874:15 *875:13 0.0110101
*RES
1 *897:sram_dat_o[24] *875:11 30.0205 
2 *875:11 *875:13 47.5029 
3 *875:13 *875:15 3.41 
4 *875:15 *875:17 56.7227 
5 *875:17 *898:wbs_dat_i[24] 6.9751 
*END

*D_NET *876 0.138847
*CONN
*I *898:wbs_dat_i[25] I *D CF_SRAM_1024x32_wb_wrapper
*I *897:sram_dat_o[25] O *D soc_sys
*CAP
1 *898:wbs_dat_i[25] 0.000860931
2 *897:sram_dat_o[25] 0.0141774
3 *876:9 0.0111929
4 *876:7 0.0103319
5 *876:5 0.0141774
6 *898:wbs_dat_i[25] *898:wbs_dat_i[26] 0.00025361
7 *876:5 *877:5 0
8 *876:5 *878:13 0.0349692
9 *897:sram_dat_i[25] *876:5 0.0122638
10 *898:wbs_dat_i[22] *898:wbs_dat_i[25] 0.00587983
11 *805:17 *876:9 0
12 *807:7 *876:5 0.000200972
13 *812:9 *876:9 0.0274893
14 *834:11 *898:wbs_dat_i[25] 0.00280598
15 *839:12 *898:wbs_dat_i[25] 0.000265091
16 *843:16 *876:9 0.00397922
*RES
1 *897:sram_dat_o[25] *876:5 71.4055 
2 *876:5 *876:7 3.41 
3 *876:7 *876:9 337.089 
4 *876:9 *898:wbs_dat_i[25] 15.8753 
*END

*D_NET *877 0.132262
*CONN
*I *898:wbs_dat_i[26] I *D CF_SRAM_1024x32_wb_wrapper
*I *897:sram_dat_o[26] O *D soc_sys
*CAP
1 *898:wbs_dat_i[26] 0.00152968
2 *897:sram_dat_o[26] 0.0170284
3 *877:9 0.00611921
4 *877:7 0.00458953
5 *877:5 0.0170284
6 *898:wbs_dat_i[26] *898:wbs_dat_i[28] 0.00446178
7 *898:wbs_dat_i[26] *883:21 0.00014225
8 *877:5 *878:13 0.00138155
9 *877:5 *880:13 0.00604839
10 *877:9 *879:9 0.0279437
11 *897:sram_dat_i[26] *877:5 0.00179639
12 *898:wbs_adr_i[19] *898:wbs_dat_i[26] 0.000807222
13 *898:wbs_adr_i[26] *898:wbs_dat_i[26] 0
14 *898:wbs_adr_i[28] *898:wbs_dat_i[26] 0.000156507
15 *898:wbs_dat_i[22] *898:wbs_dat_i[26] 0.000198561
16 *898:wbs_dat_i[25] *898:wbs_dat_i[26] 0.00025361
17 *109:21 *898:wbs_dat_i[26] 0.000542115
18 *114:29 *898:wbs_dat_i[26] 0.000640784
19 *808:7 *877:5 0.00111518
20 *809:5 *877:5 0
21 *834:11 *898:wbs_dat_i[26] 0.00449825
22 *840:7 *898:wbs_dat_i[26] 0
23 *841:35 *877:5 0.00909943
24 *843:14 *898:wbs_dat_i[26] 0.000309261
25 *873:9 *877:9 0.0265716
26 *876:5 *877:5 0
*RES
1 *897:sram_dat_o[26] *877:5 72.5586 
2 *877:5 *877:7 3.41 
3 *877:7 *877:9 342.554 
4 *877:9 *898:wbs_dat_i[26] 17.2242 
*END

*D_NET *878 0.124829
*CONN
*I *898:wbs_dat_i[27] I *D CF_SRAM_1024x32_wb_wrapper
*I *897:sram_dat_o[27] O *D soc_sys
*CAP
1 *898:wbs_dat_i[27] 0.0037591
2 *897:sram_dat_o[27] 0.000396559
3 *878:17 0.0228301
4 *878:15 0.019071
5 *878:13 0.00710491
6 *878:11 0.00750146
7 *878:11 *880:11 5.59239e-05
8 *878:11 *880:13 6.92474e-05
9 *897:sram_dat_i[27] *878:11 0.000518322
10 *898:wbs_adr_i[22] *898:wbs_dat_i[27] 0.00256183
11 *898:wbs_adr_i[27] *898:wbs_dat_i[27] 0
12 *898:wbs_dat_i[23] *898:wbs_dat_i[27] 0.00290951
13 *65:13 *898:wbs_dat_i[27] 0.000528373
14 *104:26 *878:11 7.06535e-05
15 *113:21 *898:wbs_dat_i[27] 0.000481389
16 *142:26 *898:wbs_dat_i[27] 0.000489997
17 *712:9 *878:11 0.000261834
18 *801:17 *878:17 0
19 *806:21 *898:wbs_dat_i[27] 0.000236981
20 *807:7 *878:13 0.00707296
21 *807:13 *898:wbs_dat_i[27] 0.00041847
22 *809:5 *878:11 0.000206957
23 *840:7 *898:wbs_dat_i[27] 0
24 *841:29 *898:wbs_dat_i[27] 0
25 *841:35 *878:13 0.0119331
26 *876:5 *878:13 0.0349692
27 *877:5 *878:13 0.00138155
*RES
1 *897:sram_dat_o[27] *878:11 14.3317 
2 *878:11 *878:13 54.9978 
3 *878:13 *878:15 3.41 
4 *878:15 *878:17 60.1318 
5 *878:17 *898:wbs_dat_i[27] 20.0797 
*END

*D_NET *879 0.143108
*CONN
*I *898:wbs_dat_i[28] I *D CF_SRAM_1024x32_wb_wrapper
*I *897:sram_dat_o[28] O *D soc_sys
*CAP
1 *898:wbs_dat_i[28] 0.000863465
2 *897:sram_dat_o[28] 0.0143538
3 *879:9 0.00540967
4 *879:7 0.00454621
5 *879:5 0.0143538
6 *898:wbs_dat_i[28] *898:wbs_dat_i[30] 0.00040647
7 *898:wbs_dat_i[28] *883:21 0.000135217
8 *879:9 *898:wbs_dat_i[30] 4.22135e-06
9 *879:9 *882:9 0.0285354
10 *897:sram_dat_i[28] *879:5 0.0134067
11 *897:sram_dat_i[29] *879:5 0.00204622
12 *898:wbs_adr_i[19] *898:wbs_dat_i[28] 0.00433152
13 *898:wbs_dat_i[26] *898:wbs_dat_i[28] 0.00446178
14 *799:9 *879:9 9.62956e-06
15 *809:5 *879:5 0.00351829
16 *810:5 *879:5 0.0187822
17 *841:29 *898:wbs_dat_i[28] 0
18 *842:7 *898:wbs_dat_i[28] 0
19 *877:9 *879:9 0.0279437
*RES
1 *897:sram_dat_o[28] *879:5 72.4865 
2 *879:5 *879:7 3.41 
3 *879:7 *879:9 350.446 
4 *879:9 *898:wbs_dat_i[28] 15.5973 
*END

*D_NET *880 0.100488
*CONN
*I *898:wbs_dat_i[29] I *D CF_SRAM_1024x32_wb_wrapper
*I *897:sram_dat_o[29] O *D soc_sys
*CAP
1 *898:wbs_dat_i[29] 0.000145096
2 *897:sram_dat_o[29] 0.00041116
3 *880:29 0.00101951
4 *880:27 0.00137288
5 *880:17 0.0195315
6 *880:15 0.019033
7 *880:13 0.0109497
8 *880:11 0.0113609
9 *880:29 *883:21 0.004924
10 *897:sram_dat_i[27] *880:13 2.83129e-05
11 *897:sram_dat_i[29] *880:11 0.000174244
12 *898:wbs_adr_i[19] *880:29 0.000477562
13 *898:wbs_adr_i[29] *898:wbs_dat_i[29] 0
14 *898:wbs_adr_i[30] *898:wbs_dat_i[29] 0
15 *898:wbs_dat_i[20] *880:27 2.69257e-05
16 *104:26 *880:11 0.000631071
17 *712:9 *880:11 0.000191901
18 *808:7 *880:13 0.00056217
19 *808:21 *880:29 0.000443096
20 *809:5 *880:13 0.0121499
21 *810:31 *880:29 0.000119193
22 *812:5 *880:11 0.000174244
23 *834:11 *880:27 4.01462e-06
24 *839:12 *880:27 0.00248315
25 *841:29 *880:27 0.000566279
26 *842:13 *880:29 0.00466215
27 *842:19 *880:27 0.00248754
28 *845:9 *880:29 0.000226324
29 *845:27 *880:17 0.000158261
30 *877:5 *880:13 0.00604839
31 *878:11 *880:11 5.59239e-05
32 *878:11 *880:13 6.92474e-05
*RES
1 *897:sram_dat_o[29] *880:11 15.4739 
2 *880:11 *880:13 52.7638 
3 *880:13 *880:15 3.41 
4 *880:15 *880:17 60.5579 
5 *880:17 *880:27 16.7136 
6 *880:27 *880:29 54.3393 
7 *880:29 *898:wbs_dat_i[29] 6.53571 
*END

*D_NET *881 0.0972646
*CONN
*I *898:wbs_dat_i[2] I *D CF_SRAM_1024x32_wb_wrapper
*I *897:sram_dat_o[2] O *D soc_sys
*CAP
1 *898:wbs_dat_i[2] 0.00426047
2 *897:sram_dat_o[2] 0.00142046
3 *881:9 0.00813687
4 *881:7 0.00529686
5 *898:wbs_dat_i[2] *898:wbs_dat_i[7] 0.00382699
6 *897:sram_dat_i[2] *881:7 0.000692049
7 *898:wbs_adr_i[2] *898:wbs_dat_i[2] 0.000444605
8 *898:wbs_adr_i[3] *898:wbs_dat_i[2] 0.000509352
9 *898:wbs_adr_i[5] *898:wbs_dat_i[2] 0.0163993
10 *898:wbs_stb_i *898:wbs_dat_i[2] 0.00475183
11 *540:50 *898:wbs_dat_i[2] 0.00383318
12 *650:25 *881:9 0.0015313
13 *650:35 *898:wbs_dat_i[2] 0.000185406
14 *651:31 *898:wbs_dat_i[2] 0.000318581
15 *676:15 *881:7 0.00129049
16 *711:9 *881:9 0.000693294
17 *736:9 *881:9 0.000729305
18 *747:9 *881:9 0.000392407
19 *788:13 *881:9 0.0188709
20 *819:19 *898:wbs_dat_i[2] 0.00236271
21 *839:12 *898:wbs_dat_i[2] 0.000571758
22 *856:7 *881:7 0.00129945
23 *859:9 *881:9 0.019447
*RES
1 *897:sram_dat_o[2] *881:7 8.0818 
2 *881:7 *881:9 250.875 
3 *881:9 *898:wbs_dat_i[2] 39.0087 
*END

*D_NET *882 0.119607
*CONN
*I *898:wbs_dat_i[30] I *D CF_SRAM_1024x32_wb_wrapper
*I *897:sram_dat_o[30] O *D soc_sys
*CAP
1 *898:wbs_dat_i[30] 0.000861757
2 *897:sram_dat_o[30] 0.0125173
3 *882:9 0.00699095
4 *882:7 0.00612919
5 *882:5 0.0125173
6 *898:wbs_dat_i[30] *883:21 0.000665661
7 *897:sram_dat_i[29] *882:5 0
8 *897:sram_dat_i[30] *882:5 0.0165856
9 *897:sram_dat_i[31] *882:5 0.0115849
10 *898:wbs_adr_i[30] *898:wbs_dat_i[30] 0
11 *898:wbs_dat_i[28] *898:wbs_dat_i[30] 0.00040647
12 *114:29 *898:wbs_dat_i[30] 0.00275498
13 *799:9 *898:wbs_dat_i[30] 1.90936e-05
14 *799:9 *882:9 0.014412
15 *803:9 *882:9 0
16 *805:17 *882:9 0
17 *812:5 *882:5 0.00449464
18 *813:11 *882:5 0.00112795
19 *845:7 *898:wbs_dat_i[30] 0
20 *879:9 *898:wbs_dat_i[30] 4.22135e-06
21 *879:9 *882:9 0.0285354
*RES
1 *897:sram_dat_o[30] *882:5 72.4145 
2 *882:5 *882:7 3.41 
3 *882:7 *882:9 357.125 
4 *882:9 *898:wbs_dat_i[30] 37.2411 
*END

*D_NET *883 0.125211
*CONN
*I *898:wbs_dat_i[31] I *D CF_SRAM_1024x32_wb_wrapper
*I *897:sram_dat_o[31] O *D soc_sys
*CAP
1 *898:wbs_dat_i[31] 0.000132424
2 *897:sram_dat_o[31] 0.00785827
3 *883:21 0.00121488
4 *883:19 0.00112827
5 *883:9 0.0200737
6 *883:7 0.0200279
7 *883:5 0.00785827
8 *897:sram_dat_i[31] *883:5 0.0208898
9 *898:wbs_adr_i[19] *883:21 0.000129601
10 *898:wbs_dat_i[26] *883:21 0.00014225
11 *898:wbs_dat_i[28] *883:21 0.000135217
12 *898:wbs_dat_i[30] *883:21 0.000665661
13 *114:29 *883:21 0.00119147
14 *142:26 *883:21 0
15 *808:21 *883:21 0.00339644
16 *810:9 *883:9 0
17 *810:27 *883:9 0.000147389
18 *810:27 *883:19 1.61405e-05
19 *813:13 *883:5 0.0350713
20 *834:11 *883:19 4.73891e-05
21 *835:11 *883:19 2.04282e-05
22 *838:11 *883:19 5.40377e-05
23 *845:7 *898:wbs_dat_i[31] 0
24 *845:9 *883:21 8.57871e-05
25 *880:29 *883:21 0.004924
*RES
1 *897:sram_dat_o[31] *883:5 58.5416 
2 *883:5 *883:7 3.41 
3 *883:7 *883:9 63.3278 
4 *883:9 *883:19 11.9834 
5 *883:19 *883:21 58.8571 
6 *883:21 *898:wbs_dat_i[31] 6.23214 
*END

*D_NET *884 0.0908957
*CONN
*I *898:wbs_dat_i[3] I *D CF_SRAM_1024x32_wb_wrapper
*I *897:sram_dat_o[3] O *D soc_sys
*CAP
1 *898:wbs_dat_i[3] 0.00331063
2 *897:sram_dat_o[3] 0.00515037
3 *884:9 0.011734
4 *884:7 0.0135738
5 *897:sram_dat_i[3] *884:7 0.00387957
6 *898:wbs_adr_i[3] *898:wbs_dat_i[3] 0
7 *898:wbs_sel_i[2] *898:wbs_dat_i[3] 0
8 *898:wbs_sel_i[3] *898:wbs_dat_i[3] 0
9 *141:21 *898:wbs_dat_i[3] 0.00274277
10 *815:7 *884:7 0.000337075
11 *824:19 *898:wbs_dat_i[3] 0.00212171
12 *825:19 *898:wbs_dat_i[3] 0.000248285
13 *847:11 *898:wbs_dat_i[3] 0
14 *849:11 *898:wbs_dat_i[3] 0.00881621
15 *849:13 *884:9 0.0216095
16 *853:11 *898:wbs_dat_i[3] 0.014933
17 *857:7 *884:7 0.00243875
*RES
1 *897:sram_dat_o[3] *884:7 18.0991 
2 *884:7 *884:9 266.661 
3 *884:9 *898:wbs_dat_i[3] 41.6244 
*END

*D_NET *885 0.114256
*CONN
*I *898:wbs_dat_i[4] I *D CF_SRAM_1024x32_wb_wrapper
*I *897:sram_dat_o[4] O *D soc_sys
*CAP
1 *898:wbs_dat_i[4] 0.00136205
2 *897:sram_dat_o[4] 0.00343151
3 *885:15 0.0045895
4 *885:9 0.00759693
5 *885:7 0.00780099
6 *885:15 *886:15 0.0172878
7 *897:sram_dat_i[4] *885:7 0.00203115
8 *898:wbs_adr_i[4] *898:wbs_dat_i[4] 0
9 *898:wbs_dat_i[11] *885:15 0.00313125
10 *898:wbs_sel_i[3] *898:wbs_dat_i[4] 0
11 *39:29 *885:15 0.00355286
12 *726:9 *885:9 0.000161595
13 *738:9 *885:9 0.000706205
14 *795:19 *885:9 0
15 *815:7 *885:7 0.000418854
16 *816:7 *885:7 0.00307106
17 *816:9 *885:9 0.000648352
18 *822:13 *885:9 1.78393e-05
19 *825:21 *885:9 0.0220559
20 *848:17 *898:wbs_dat_i[4] 0
21 *851:11 *885:15 0.000576355
22 *856:9 *885:9 0
23 *857:15 *885:15 0.000265475
24 *859:15 *885:15 0.0147742
25 *860:9 *885:9 0.000161225
26 *870:13 *885:9 0.0206154
*RES
1 *897:sram_dat_o[4] *885:7 13.9192 
2 *885:7 *885:9 281.232 
3 *885:9 *885:15 36.054 
4 *885:15 *898:wbs_dat_i[4] 20.0982 
*END

*D_NET *886 0.113872
*CONN
*I *898:wbs_dat_i[5] I *D CF_SRAM_1024x32_wb_wrapper
*I *897:sram_dat_o[5] O *D soc_sys
*CAP
1 *898:wbs_dat_i[5] 0.00137471
2 *897:sram_dat_o[5] 0.0044385
3 *886:15 0.0044293
4 *886:9 0.00775635
5 *886:7 0.00914026
6 *886:9 *889:9 0
7 *897:sram_dat_i[5] *886:7 0.00361708
8 *897:sram_dat_i[6] *886:7 0.000214206
9 *898:wbs_dat_i[11] *886:15 0.00034593
10 *713:9 *886:9 0
11 *721:9 *886:9 0.000569536
12 *725:9 *886:9 0.00116202
13 *780:9 *886:9 0.000994559
14 *800:9 *886:9 9.06175e-05
15 *807:9 *886:9 0.0219627
16 *814:9 *886:9 0.020682
17 *817:7 *886:7 0.00148312
18 *818:7 *886:7 0
19 *837:13 *886:9 0.000214364
20 *848:17 *898:wbs_dat_i[5] 0
21 *849:11 *898:wbs_dat_i[5] 0
22 *851:11 *886:15 0.0179613
23 *867:15 *886:9 0.000147405
24 *885:15 *886:15 0.0172878
*RES
1 *897:sram_dat_o[5] *886:7 15.7209 
2 *886:7 *886:9 285.482 
3 *886:9 *886:15 35.3333 
4 *886:15 *898:wbs_dat_i[5] 20.7054 
*END

*D_NET *887 0.112818
*CONN
*I *898:wbs_dat_i[6] I *D CF_SRAM_1024x32_wb_wrapper
*I *897:sram_dat_o[6] O *D soc_sys
*CAP
1 *898:wbs_dat_i[6] 0.00170533
2 *897:sram_dat_o[6] 0.00222845
3 *887:15 0.00484415
4 *887:9 0.00872288
5 *887:7 0.00781251
6 *887:15 *889:15 0.0193815
7 *887:15 *890:15 0.0209477
8 *897:sram_dat_i[6] *887:7 0.00167185
9 *898:wbs_adr_i[6] *898:wbs_dat_i[6] 0
10 *31:13 *887:15 0.00303134
11 *33:21 *887:15 0.000515187
12 *67:231 *887:7 0.00074743
13 *143:45 *887:9 5.66672e-05
14 *686:9 *887:9 0.00309297
15 *757:9 *887:9 0.000394864
16 *818:7 *887:7 0.00214585
17 *823:17 *887:9 0.0229485
18 *849:11 *898:wbs_dat_i[6] 0
19 *850:7 *898:wbs_dat_i[6] 0
20 *850:13 *887:9 0.0107407
21 *868:9 *887:9 5.28924e-05
22 *869:13 *887:15 0.00014196
23 *872:13 *887:15 0.00163534
*RES
1 *897:sram_dat_o[6] *887:7 10.6762 
2 *887:7 *887:9 294.589 
3 *887:9 *887:15 41.459 
4 *887:15 *898:wbs_dat_i[6] 26.1696 
*END

*D_NET *888 0.117761
*CONN
*I *898:wbs_dat_i[7] I *D CF_SRAM_1024x32_wb_wrapper
*I *897:sram_dat_o[7] O *D soc_sys
*CAP
1 *898:wbs_dat_i[7] 0.0157758
2 *897:sram_dat_o[7] 0.00285498
3 *888:11 0.0304937
4 *888:7 0.0175728
5 *888:7 *889:7 0
6 *897:sram_dat_i[7] *888:7 0.00153794
7 *897:sram_dat_i[8] *888:7 0.000530807
8 *898:wbs_adr_i[2] *898:wbs_dat_i[7] 0.00349283
9 *898:wbs_adr_i[3] *898:wbs_dat_i[7] 0.00391741
10 *898:wbs_adr_i[5] *898:wbs_dat_i[7] 0.00257905
11 *898:wbs_dat_i[2] *898:wbs_dat_i[7] 0.00382699
12 *898:wbs_sel_i[0] *898:wbs_dat_i[7] 0.00161416
13 *898:wbs_stb_i *898:wbs_dat_i[7] 0.00348902
14 *107:21 *898:wbs_dat_i[7] 0.00180443
15 *540:50 *898:wbs_dat_i[7] 0.000120623
16 *541:27 *898:wbs_dat_i[7] 0.000581227
17 *651:21 *888:11 0
18 *657:21 *888:11 0.000274553
19 *658:21 *888:11 0
20 *692:9 *888:11 0.00145861
21 *696:9 *888:11 0.000502741
22 *704:9 *888:11 0.000815842
23 *715:9 *888:11 0.00062988
24 *728:9 *888:11 0.000861942
25 *737:9 *888:11 0.00999183
26 *757:9 *888:11 0.00213063
27 *758:23 *888:11 0.00415259
28 *808:19 *898:wbs_dat_i[7] 0.000563228
29 *818:7 *888:7 0.000331971
30 *819:7 *888:7 0.000524641
31 *819:19 *898:wbs_dat_i[7] 0.00043668
32 *827:21 *888:11 0.0019461
33 *838:11 *898:wbs_dat_i[7] 0.000311896
34 *839:12 *898:wbs_dat_i[7] 0.000374041
35 *866:9 *888:11 0.00226252
*RES
1 *897:sram_dat_o[7] *888:7 11.3608 
2 *888:7 *888:11 48.367 
3 *888:11 *898:wbs_dat_i[7] 11.9927 
*END

*D_NET *889 0.119275
*CONN
*I *898:wbs_dat_i[8] I *D CF_SRAM_1024x32_wb_wrapper
*I *897:sram_dat_o[8] O *D soc_sys
*CAP
1 *898:wbs_dat_i[8] 0.00171225
2 *897:sram_dat_o[8] 0.00411368
3 *889:15 0.00451722
4 *889:9 0.0107701
5 *889:7 0.0120788
6 *889:15 *890:15 0.000771706
7 *897:sram_dat_i[8] *889:7 0.00179924
8 *898:wbs_adr_i[8] *898:wbs_dat_i[8] 0
9 *31:13 *889:15 0.00424292
10 *713:9 *889:9 0.0121528
11 *800:9 *889:9 0
12 *818:7 *889:7 0
13 *820:7 *889:7 0.00350026
14 *851:7 *898:wbs_dat_i[8] 0
15 *852:7 *898:wbs_dat_i[8] 0
16 *862:9 *889:9 0.0234753
17 *871:9 *889:9 0
18 *872:13 *889:15 0.0207593
19 *886:9 *889:9 0
20 *887:15 *889:15 0.0193815
21 *888:7 *889:7 0
*RES
1 *897:sram_dat_o[8] *889:7 15.2164 
2 *889:7 *889:9 302.482 
3 *889:9 *889:15 39.0808 
4 *889:15 *898:wbs_dat_i[8] 26.7768 
*END

*D_NET *890 0.116196
*CONN
*I *898:wbs_dat_i[9] I *D CF_SRAM_1024x32_wb_wrapper
*I *897:sram_dat_o[9] O *D soc_sys
*CAP
1 *898:wbs_dat_i[9] 0.00163308
2 *897:sram_dat_o[9] 0.00316207
3 *890:15 0.00482539
4 *890:9 0.0116316
5 *890:7 0.0116014
6 *897:sram_dat_i[10] *890:7 0.00043404
7 *897:sram_dat_i[9] *890:7 0.00276785
8 *898:wbs_adr_i[9] *898:wbs_dat_i[9] 0
9 *39:35 *890:9 0
10 *42:13 *890:9 0
11 *110:19 *890:9 0
12 *142:24 *890:9 0
13 *674:9 *890:9 0.00507192
14 *695:9 *890:9 0
15 *707:9 *890:9 0
16 *729:9 *890:9 0.00135975
17 *746:9 *890:9 0.0025314
18 *783:17 *890:9 0
19 *790:7 *890:7 0.00110457
20 *827:19 *890:9 0
21 *844:17 *890:9 2.93204e-05
22 *852:7 *898:wbs_dat_i[9] 0
23 *853:7 *898:wbs_dat_i[9] 0
24 *853:13 *890:9 0.02343
25 *860:7 *890:7 0
26 *861:9 *890:9 0.00219914
27 *869:13 *890:15 0.000800552
28 *871:13 *890:15 0.021623
29 *872:13 *890:15 0.000271725
30 *887:15 *890:15 0.0209477
31 *889:15 *890:15 0.000771706
*RES
1 *897:sram_dat_o[9] *890:7 12.7661 
2 *890:7 *890:9 304.911 
3 *890:9 *890:15 42.6121 
4 *890:15 *898:wbs_dat_i[9] 25.5625 
*END

*D_NET *891 0.0949329
*CONN
*I *898:wbs_we_i I *D CF_SRAM_1024x32_wb_wrapper
*I *897:sram_we_o O *D soc_sys
*CAP
1 *898:wbs_we_i 0.0019504
2 *897:sram_we_o 0.00227107
3 *891:15 0.00424189
4 *891:9 0.0112401
5 *891:7 0.0112197
6 *897:sram_dat_i[0] *891:7 0.000645517
7 *898:wbs_adr_i[0] *898:wbs_we_i 0
8 *898:wbs_dat_i[0] *898:wbs_we_i 0
9 *898:wbs_stb_i *898:wbs_we_i 0
10 *31:13 *891:15 0.00375369
11 *66:13 *891:15 0.017429
12 *651:31 *891:9 0
13 *691:9 *891:9 0
14 *709:9 *891:9 0
15 *740:11 *891:9 0.000686413
16 *789:7 *891:7 0.000193493
17 *824:21 *891:9 0.0011011
18 *848:23 *891:9 0
19 *852:13 *891:9 0.0209485
20 *858:7 *891:7 0.00168758
21 *872:9 *891:9 0.000135277
22 *872:13 *891:15 0.017429
*RES
1 *897:sram_we_o *891:7 9.5952 
2 *891:7 *891:9 266.054 
3 *891:9 *891:15 33.892 
4 *891:15 *898:wbs_we_i 27.9911 
*END
