*SPEF "ieee 1481-1999"
*DESIGN "user_project_wrapper"
*DATE "14:57:09 Tuesday September 22, 2026"
*VENDOR "The OpenROAD Project"
*PROGRAM "OpenROAD"
*VERSION "edf00dff99f6c40d67a30c0e22a8191c5d2ed9d6"
*DESIGN_FLOW "NAME_SCOPE LOCAL" "PIN_CAP NONE"
*DIVIDER /
*DELIMITER :
*BUS_DELIMITER []
*T_UNIT 1 NS
*C_UNIT 1 PF
*R_UNIT 1 OHM
*L_UNIT 1 HENRY

*NAME_MAP
*1 analog_io[0]
*2 analog_io[10]
*3 analog_io[11]
*4 analog_io[12]
*5 analog_io[13]
*6 analog_io[14]
*7 analog_io[15]
*8 analog_io[16]
*9 analog_io[17]
*10 analog_io[18]
*11 analog_io[19]
*12 analog_io[1]
*13 analog_io[20]
*14 analog_io[21]
*15 analog_io[22]
*16 analog_io[23]
*17 analog_io[24]
*18 analog_io[25]
*19 analog_io[26]
*20 analog_io[27]
*21 analog_io[28]
*22 analog_io[2]
*23 analog_io[3]
*24 analog_io[4]
*25 analog_io[5]
*26 analog_io[6]
*27 analog_io[7]
*28 analog_io[8]
*29 analog_io[9]
*30 io_in[0]
*31 io_in[10]
*32 io_in[11]
*33 io_in[12]
*34 io_in[13]
*35 io_in[14]
*36 io_in[15]
*37 io_in[16]
*38 io_in[17]
*39 io_in[18]
*40 io_in[19]
*41 io_in[1]
*42 io_in[20]
*43 io_in[21]
*44 io_in[22]
*45 io_in[23]
*46 io_in[24]
*47 io_in[25]
*48 io_in[26]
*49 io_in[27]
*50 io_in[28]
*51 io_in[29]
*52 io_in[2]
*53 io_in[30]
*54 io_in[31]
*55 io_in[32]
*56 io_in[33]
*57 io_in[34]
*58 io_in[35]
*59 io_in[36]
*60 io_in[37]
*61 io_in[3]
*62 io_in[4]
*63 io_in[5]
*64 io_in[6]
*65 io_in[7]
*66 io_in[8]
*67 io_in[9]
*68 io_oeb[0]
*69 io_oeb[10]
*70 io_oeb[11]
*71 io_oeb[12]
*72 io_oeb[13]
*73 io_oeb[14]
*74 io_oeb[15]
*75 io_oeb[16]
*76 io_oeb[17]
*77 io_oeb[18]
*78 io_oeb[19]
*79 io_oeb[1]
*80 io_oeb[20]
*81 io_oeb[21]
*82 io_oeb[22]
*83 io_oeb[23]
*84 io_oeb[24]
*85 io_oeb[25]
*86 io_oeb[26]
*87 io_oeb[27]
*88 io_oeb[28]
*89 io_oeb[29]
*90 io_oeb[2]
*91 io_oeb[30]
*92 io_oeb[31]
*93 io_oeb[32]
*94 io_oeb[33]
*95 io_oeb[34]
*96 io_oeb[35]
*97 io_oeb[36]
*98 io_oeb[37]
*99 io_oeb[3]
*100 io_oeb[4]
*101 io_oeb[5]
*102 io_oeb[6]
*103 io_oeb[7]
*104 io_oeb[8]
*105 io_oeb[9]
*106 io_out[0]
*107 io_out[10]
*108 io_out[11]
*109 io_out[12]
*110 io_out[13]
*111 io_out[14]
*112 io_out[15]
*113 io_out[16]
*114 io_out[17]
*115 io_out[18]
*116 io_out[19]
*117 io_out[1]
*118 io_out[20]
*119 io_out[21]
*120 io_out[22]
*121 io_out[23]
*122 io_out[24]
*123 io_out[25]
*124 io_out[26]
*125 io_out[27]
*126 io_out[28]
*127 io_out[29]
*128 io_out[2]
*129 io_out[30]
*130 io_out[31]
*131 io_out[32]
*132 io_out[33]
*133 io_out[34]
*134 io_out[35]
*135 io_out[36]
*136 io_out[37]
*137 io_out[3]
*138 io_out[4]
*139 io_out[5]
*140 io_out[6]
*141 io_out[7]
*142 io_out[8]
*143 io_out[9]
*144 la_data_in[0]
*145 la_data_in[100]
*146 la_data_in[101]
*147 la_data_in[102]
*148 la_data_in[103]
*149 la_data_in[104]
*150 la_data_in[105]
*151 la_data_in[106]
*152 la_data_in[107]
*153 la_data_in[108]
*154 la_data_in[109]
*155 la_data_in[10]
*156 la_data_in[110]
*157 la_data_in[111]
*158 la_data_in[112]
*159 la_data_in[113]
*160 la_data_in[114]
*161 la_data_in[115]
*162 la_data_in[116]
*163 la_data_in[117]
*164 la_data_in[118]
*165 la_data_in[119]
*166 la_data_in[11]
*167 la_data_in[120]
*168 la_data_in[121]
*169 la_data_in[122]
*170 la_data_in[123]
*171 la_data_in[124]
*172 la_data_in[125]
*173 la_data_in[126]
*174 la_data_in[127]
*175 la_data_in[12]
*176 la_data_in[13]
*177 la_data_in[14]
*178 la_data_in[15]
*179 la_data_in[16]
*180 la_data_in[17]
*181 la_data_in[18]
*182 la_data_in[19]
*183 la_data_in[1]
*184 la_data_in[20]
*185 la_data_in[21]
*186 la_data_in[22]
*187 la_data_in[23]
*188 la_data_in[24]
*189 la_data_in[25]
*190 la_data_in[26]
*191 la_data_in[27]
*192 la_data_in[28]
*193 la_data_in[29]
*194 la_data_in[2]
*195 la_data_in[30]
*196 la_data_in[31]
*197 la_data_in[32]
*198 la_data_in[33]
*199 la_data_in[34]
*200 la_data_in[35]
*201 la_data_in[36]
*202 la_data_in[37]
*203 la_data_in[38]
*204 la_data_in[39]
*205 la_data_in[3]
*206 la_data_in[40]
*207 la_data_in[41]
*208 la_data_in[42]
*209 la_data_in[43]
*210 la_data_in[44]
*211 la_data_in[45]
*212 la_data_in[46]
*213 la_data_in[47]
*214 la_data_in[48]
*215 la_data_in[49]
*216 la_data_in[4]
*217 la_data_in[50]
*218 la_data_in[51]
*219 la_data_in[52]
*220 la_data_in[53]
*221 la_data_in[54]
*222 la_data_in[55]
*223 la_data_in[56]
*224 la_data_in[57]
*225 la_data_in[58]
*226 la_data_in[59]
*227 la_data_in[5]
*228 la_data_in[60]
*229 la_data_in[61]
*230 la_data_in[62]
*231 la_data_in[63]
*232 la_data_in[64]
*233 la_data_in[65]
*234 la_data_in[66]
*235 la_data_in[67]
*236 la_data_in[68]
*237 la_data_in[69]
*238 la_data_in[6]
*239 la_data_in[70]
*240 la_data_in[71]
*241 la_data_in[72]
*242 la_data_in[73]
*243 la_data_in[74]
*244 la_data_in[75]
*245 la_data_in[76]
*246 la_data_in[77]
*247 la_data_in[78]
*248 la_data_in[79]
*249 la_data_in[7]
*250 la_data_in[80]
*251 la_data_in[81]
*252 la_data_in[82]
*253 la_data_in[83]
*254 la_data_in[84]
*255 la_data_in[85]
*256 la_data_in[86]
*257 la_data_in[87]
*258 la_data_in[88]
*259 la_data_in[89]
*260 la_data_in[8]
*261 la_data_in[90]
*262 la_data_in[91]
*263 la_data_in[92]
*264 la_data_in[93]
*265 la_data_in[94]
*266 la_data_in[95]
*267 la_data_in[96]
*268 la_data_in[97]
*269 la_data_in[98]
*270 la_data_in[99]
*271 la_data_in[9]
*272 la_data_out[0]
*273 la_data_out[100]
*274 la_data_out[101]
*275 la_data_out[102]
*276 la_data_out[103]
*277 la_data_out[104]
*278 la_data_out[105]
*279 la_data_out[106]
*280 la_data_out[107]
*281 la_data_out[108]
*282 la_data_out[109]
*283 la_data_out[10]
*284 la_data_out[110]
*285 la_data_out[111]
*286 la_data_out[112]
*287 la_data_out[113]
*288 la_data_out[114]
*289 la_data_out[115]
*290 la_data_out[116]
*291 la_data_out[117]
*292 la_data_out[118]
*293 la_data_out[119]
*294 la_data_out[11]
*295 la_data_out[120]
*296 la_data_out[121]
*297 la_data_out[122]
*298 la_data_out[123]
*299 la_data_out[124]
*300 la_data_out[125]
*301 la_data_out[126]
*302 la_data_out[127]
*303 la_data_out[12]
*304 la_data_out[13]
*305 la_data_out[14]
*306 la_data_out[15]
*307 la_data_out[16]
*308 la_data_out[17]
*309 la_data_out[18]
*310 la_data_out[19]
*311 la_data_out[1]
*312 la_data_out[20]
*313 la_data_out[21]
*314 la_data_out[22]
*315 la_data_out[23]
*316 la_data_out[24]
*317 la_data_out[25]
*318 la_data_out[26]
*319 la_data_out[27]
*320 la_data_out[28]
*321 la_data_out[29]
*322 la_data_out[2]
*323 la_data_out[30]
*324 la_data_out[31]
*325 la_data_out[32]
*326 la_data_out[33]
*327 la_data_out[34]
*328 la_data_out[35]
*329 la_data_out[36]
*330 la_data_out[37]
*331 la_data_out[38]
*332 la_data_out[39]
*333 la_data_out[3]
*334 la_data_out[40]
*335 la_data_out[41]
*336 la_data_out[42]
*337 la_data_out[43]
*338 la_data_out[44]
*339 la_data_out[45]
*340 la_data_out[46]
*341 la_data_out[47]
*342 la_data_out[48]
*343 la_data_out[49]
*344 la_data_out[4]
*345 la_data_out[50]
*346 la_data_out[51]
*347 la_data_out[52]
*348 la_data_out[53]
*349 la_data_out[54]
*350 la_data_out[55]
*351 la_data_out[56]
*352 la_data_out[57]
*353 la_data_out[58]
*354 la_data_out[59]
*355 la_data_out[5]
*356 la_data_out[60]
*357 la_data_out[61]
*358 la_data_out[62]
*359 la_data_out[63]
*360 la_data_out[64]
*361 la_data_out[65]
*362 la_data_out[66]
*363 la_data_out[67]
*364 la_data_out[68]
*365 la_data_out[69]
*366 la_data_out[6]
*367 la_data_out[70]
*368 la_data_out[71]
*369 la_data_out[72]
*370 la_data_out[73]
*371 la_data_out[74]
*372 la_data_out[75]
*373 la_data_out[76]
*374 la_data_out[77]
*375 la_data_out[78]
*376 la_data_out[79]
*377 la_data_out[7]
*378 la_data_out[80]
*379 la_data_out[81]
*380 la_data_out[82]
*381 la_data_out[83]
*382 la_data_out[84]
*383 la_data_out[85]
*384 la_data_out[86]
*385 la_data_out[87]
*386 la_data_out[88]
*387 la_data_out[89]
*388 la_data_out[8]
*389 la_data_out[90]
*390 la_data_out[91]
*391 la_data_out[92]
*392 la_data_out[93]
*393 la_data_out[94]
*394 la_data_out[95]
*395 la_data_out[96]
*396 la_data_out[97]
*397 la_data_out[98]
*398 la_data_out[99]
*399 la_data_out[9]
*400 la_oenb[0]
*401 la_oenb[100]
*402 la_oenb[101]
*403 la_oenb[102]
*404 la_oenb[103]
*405 la_oenb[104]
*406 la_oenb[105]
*407 la_oenb[106]
*408 la_oenb[107]
*409 la_oenb[108]
*410 la_oenb[109]
*411 la_oenb[10]
*412 la_oenb[110]
*413 la_oenb[111]
*414 la_oenb[112]
*415 la_oenb[113]
*416 la_oenb[114]
*417 la_oenb[115]
*418 la_oenb[116]
*419 la_oenb[117]
*420 la_oenb[118]
*421 la_oenb[119]
*422 la_oenb[11]
*423 la_oenb[120]
*424 la_oenb[121]
*425 la_oenb[122]
*426 la_oenb[123]
*427 la_oenb[124]
*428 la_oenb[125]
*429 la_oenb[126]
*430 la_oenb[127]
*431 la_oenb[12]
*432 la_oenb[13]
*433 la_oenb[14]
*434 la_oenb[15]
*435 la_oenb[16]
*436 la_oenb[17]
*437 la_oenb[18]
*438 la_oenb[19]
*439 la_oenb[1]
*440 la_oenb[20]
*441 la_oenb[21]
*442 la_oenb[22]
*443 la_oenb[23]
*444 la_oenb[24]
*445 la_oenb[25]
*446 la_oenb[26]
*447 la_oenb[27]
*448 la_oenb[28]
*449 la_oenb[29]
*450 la_oenb[2]
*451 la_oenb[30]
*452 la_oenb[31]
*453 la_oenb[32]
*454 la_oenb[33]
*455 la_oenb[34]
*456 la_oenb[35]
*457 la_oenb[36]
*458 la_oenb[37]
*459 la_oenb[38]
*460 la_oenb[39]
*461 la_oenb[3]
*462 la_oenb[40]
*463 la_oenb[41]
*464 la_oenb[42]
*465 la_oenb[43]
*466 la_oenb[44]
*467 la_oenb[45]
*468 la_oenb[46]
*469 la_oenb[47]
*470 la_oenb[48]
*471 la_oenb[49]
*472 la_oenb[4]
*473 la_oenb[50]
*474 la_oenb[51]
*475 la_oenb[52]
*476 la_oenb[53]
*477 la_oenb[54]
*478 la_oenb[55]
*479 la_oenb[56]
*480 la_oenb[57]
*481 la_oenb[58]
*482 la_oenb[59]
*483 la_oenb[5]
*484 la_oenb[60]
*485 la_oenb[61]
*486 la_oenb[62]
*487 la_oenb[63]
*488 la_oenb[64]
*489 la_oenb[65]
*490 la_oenb[66]
*491 la_oenb[67]
*492 la_oenb[68]
*493 la_oenb[69]
*494 la_oenb[6]
*495 la_oenb[70]
*496 la_oenb[71]
*497 la_oenb[72]
*498 la_oenb[73]
*499 la_oenb[74]
*500 la_oenb[75]
*501 la_oenb[76]
*502 la_oenb[77]
*503 la_oenb[78]
*504 la_oenb[79]
*505 la_oenb[7]
*506 la_oenb[80]
*507 la_oenb[81]
*508 la_oenb[82]
*509 la_oenb[83]
*510 la_oenb[84]
*511 la_oenb[85]
*512 la_oenb[86]
*513 la_oenb[87]
*514 la_oenb[88]
*515 la_oenb[89]
*516 la_oenb[8]
*517 la_oenb[90]
*518 la_oenb[91]
*519 la_oenb[92]
*520 la_oenb[93]
*521 la_oenb[94]
*522 la_oenb[95]
*523 la_oenb[96]
*524 la_oenb[97]
*525 la_oenb[98]
*526 la_oenb[99]
*527 la_oenb[9]
*528 user_clock2
*529 user_irq[0]
*530 user_irq[1]
*531 user_irq[2]
*540 wb_clk_i
*541 wb_rst_i
*542 wbs_ack_o
*543 wbs_adr_i[0]
*544 wbs_adr_i[10]
*545 wbs_adr_i[11]
*546 wbs_adr_i[12]
*547 wbs_adr_i[13]
*548 wbs_adr_i[14]
*549 wbs_adr_i[15]
*550 wbs_adr_i[16]
*551 wbs_adr_i[17]
*552 wbs_adr_i[18]
*553 wbs_adr_i[19]
*554 wbs_adr_i[1]
*555 wbs_adr_i[20]
*556 wbs_adr_i[21]
*557 wbs_adr_i[22]
*558 wbs_adr_i[23]
*559 wbs_adr_i[24]
*560 wbs_adr_i[25]
*561 wbs_adr_i[26]
*562 wbs_adr_i[27]
*563 wbs_adr_i[28]
*564 wbs_adr_i[29]
*565 wbs_adr_i[2]
*566 wbs_adr_i[30]
*567 wbs_adr_i[31]
*568 wbs_adr_i[3]
*569 wbs_adr_i[4]
*570 wbs_adr_i[5]
*571 wbs_adr_i[6]
*572 wbs_adr_i[7]
*573 wbs_adr_i[8]
*574 wbs_adr_i[9]
*575 wbs_cyc_i
*576 wbs_dat_i[0]
*577 wbs_dat_i[10]
*578 wbs_dat_i[11]
*579 wbs_dat_i[12]
*580 wbs_dat_i[13]
*581 wbs_dat_i[14]
*582 wbs_dat_i[15]
*583 wbs_dat_i[16]
*584 wbs_dat_i[17]
*585 wbs_dat_i[18]
*586 wbs_dat_i[19]
*587 wbs_dat_i[1]
*588 wbs_dat_i[20]
*589 wbs_dat_i[21]
*590 wbs_dat_i[22]
*591 wbs_dat_i[23]
*592 wbs_dat_i[24]
*593 wbs_dat_i[25]
*594 wbs_dat_i[26]
*595 wbs_dat_i[27]
*596 wbs_dat_i[28]
*597 wbs_dat_i[29]
*598 wbs_dat_i[2]
*599 wbs_dat_i[30]
*600 wbs_dat_i[31]
*601 wbs_dat_i[3]
*602 wbs_dat_i[4]
*603 wbs_dat_i[5]
*604 wbs_dat_i[6]
*605 wbs_dat_i[7]
*606 wbs_dat_i[8]
*607 wbs_dat_i[9]
*608 wbs_dat_o[0]
*609 wbs_dat_o[10]
*610 wbs_dat_o[11]
*611 wbs_dat_o[12]
*612 wbs_dat_o[13]
*613 wbs_dat_o[14]
*614 wbs_dat_o[15]
*615 wbs_dat_o[16]
*616 wbs_dat_o[17]
*617 wbs_dat_o[18]
*618 wbs_dat_o[19]
*619 wbs_dat_o[1]
*620 wbs_dat_o[20]
*621 wbs_dat_o[21]
*622 wbs_dat_o[22]
*623 wbs_dat_o[23]
*624 wbs_dat_o[24]
*625 wbs_dat_o[25]
*626 wbs_dat_o[26]
*627 wbs_dat_o[27]
*628 wbs_dat_o[28]
*629 wbs_dat_o[29]
*630 wbs_dat_o[2]
*631 wbs_dat_o[30]
*632 wbs_dat_o[31]
*633 wbs_dat_o[3]
*634 wbs_dat_o[4]
*635 wbs_dat_o[5]
*636 wbs_dat_o[6]
*637 wbs_dat_o[7]
*638 wbs_dat_o[8]
*639 wbs_dat_o[9]
*640 wbs_sel_i[0]
*641 wbs_sel_i[1]
*642 wbs_sel_i[2]
*643 wbs_sel_i[3]
*644 wbs_stb_i
*645 wbs_we_i
*646 afe_data\[0\]
*647 afe_data\[10\]
*648 afe_data\[11\]
*649 afe_data\[1\]
*650 afe_data\[2\]
*651 afe_data\[3\]
*652 afe_data\[4\]
*653 afe_data\[5\]
*654 afe_data\[6\]
*655 afe_data\[7\]
*656 afe_data\[8\]
*657 afe_data\[9\]
*658 afe_eof
*659 afe_ibias
*660 afe_nbias
*661 afe_refby2
*662 afe_refhi
*663 afe_vout
*664 afe_vref
*665 analog_ctrl\[0\]
*666 analog_ctrl\[100\]
*667 analog_ctrl\[101\]
*668 analog_ctrl\[102\]
*669 analog_ctrl\[103\]
*670 analog_ctrl\[104\]
*671 analog_ctrl\[105\]
*672 analog_ctrl\[106\]
*673 analog_ctrl\[107\]
*674 analog_ctrl\[108\]
*675 analog_ctrl\[109\]
*676 analog_ctrl\[10\]
*677 analog_ctrl\[110\]
*678 analog_ctrl\[111\]
*679 analog_ctrl\[112\]
*680 analog_ctrl\[113\]
*681 analog_ctrl\[114\]
*682 analog_ctrl\[115\]
*683 analog_ctrl\[116\]
*684 analog_ctrl\[117\]
*685 analog_ctrl\[118\]
*686 analog_ctrl\[119\]
*687 analog_ctrl\[11\]
*688 analog_ctrl\[120\]
*689 analog_ctrl\[121\]
*690 analog_ctrl\[122\]
*691 analog_ctrl\[12\]
*692 analog_ctrl\[13\]
*693 analog_ctrl\[14\]
*694 analog_ctrl\[15\]
*695 analog_ctrl\[16\]
*696 analog_ctrl\[17\]
*697 analog_ctrl\[18\]
*698 analog_ctrl\[19\]
*699 analog_ctrl\[1\]
*700 analog_ctrl\[20\]
*701 analog_ctrl\[21\]
*702 analog_ctrl\[22\]
*703 analog_ctrl\[23\]
*704 analog_ctrl\[24\]
*705 analog_ctrl\[25\]
*706 analog_ctrl\[26\]
*707 analog_ctrl\[27\]
*708 analog_ctrl\[28\]
*709 analog_ctrl\[29\]
*710 analog_ctrl\[2\]
*711 analog_ctrl\[30\]
*712 analog_ctrl\[31\]
*713 analog_ctrl\[32\]
*714 analog_ctrl\[33\]
*715 analog_ctrl\[34\]
*716 analog_ctrl\[35\]
*717 analog_ctrl\[36\]
*718 analog_ctrl\[37\]
*719 analog_ctrl\[38\]
*720 analog_ctrl\[39\]
*721 analog_ctrl\[3\]
*722 analog_ctrl\[40\]
*723 analog_ctrl\[41\]
*724 analog_ctrl\[42\]
*725 analog_ctrl\[43\]
*726 analog_ctrl\[44\]
*727 analog_ctrl\[45\]
*728 analog_ctrl\[46\]
*729 analog_ctrl\[47\]
*730 analog_ctrl\[48\]
*731 analog_ctrl\[49\]
*732 analog_ctrl\[4\]
*733 analog_ctrl\[50\]
*734 analog_ctrl\[51\]
*735 analog_ctrl\[52\]
*736 analog_ctrl\[53\]
*737 analog_ctrl\[54\]
*738 analog_ctrl\[55\]
*739 analog_ctrl\[56\]
*740 analog_ctrl\[57\]
*741 analog_ctrl\[58\]
*742 analog_ctrl\[59\]
*743 analog_ctrl\[5\]
*744 analog_ctrl\[60\]
*745 analog_ctrl\[61\]
*746 analog_ctrl\[62\]
*747 analog_ctrl\[63\]
*748 analog_ctrl\[64\]
*749 analog_ctrl\[65\]
*750 analog_ctrl\[66\]
*751 analog_ctrl\[67\]
*752 analog_ctrl\[68\]
*753 analog_ctrl\[69\]
*754 analog_ctrl\[6\]
*755 analog_ctrl\[70\]
*756 analog_ctrl\[71\]
*757 analog_ctrl\[72\]
*758 analog_ctrl\[73\]
*759 analog_ctrl\[74\]
*760 analog_ctrl\[75\]
*761 analog_ctrl\[76\]
*762 analog_ctrl\[77\]
*763 analog_ctrl\[78\]
*764 analog_ctrl\[79\]
*765 analog_ctrl\[7\]
*766 analog_ctrl\[80\]
*767 analog_ctrl\[81\]
*768 analog_ctrl\[82\]
*769 analog_ctrl\[83\]
*770 analog_ctrl\[84\]
*771 analog_ctrl\[85\]
*772 analog_ctrl\[86\]
*773 analog_ctrl\[87\]
*774 analog_ctrl\[88\]
*775 analog_ctrl\[89\]
*776 analog_ctrl\[8\]
*777 analog_ctrl\[90\]
*778 analog_ctrl\[91\]
*779 analog_ctrl\[92\]
*780 analog_ctrl\[93\]
*781 analog_ctrl\[94\]
*782 analog_ctrl\[95\]
*783 analog_ctrl\[96\]
*784 analog_ctrl\[97\]
*785 analog_ctrl\[98\]
*786 analog_ctrl\[99\]
*787 analog_ctrl\[9\]
*788 sram_ack
*789 sram_adr\[0\]
*790 sram_adr\[10\]
*791 sram_adr\[11\]
*792 sram_adr\[12\]
*793 sram_adr\[13\]
*794 sram_adr\[14\]
*795 sram_adr\[15\]
*796 sram_adr\[16\]
*797 sram_adr\[17\]
*798 sram_adr\[18\]
*799 sram_adr\[19\]
*800 sram_adr\[1\]
*801 sram_adr\[20\]
*802 sram_adr\[21\]
*803 sram_adr\[22\]
*804 sram_adr\[23\]
*805 sram_adr\[24\]
*806 sram_adr\[25\]
*807 sram_adr\[26\]
*808 sram_adr\[27\]
*809 sram_adr\[28\]
*810 sram_adr\[29\]
*811 sram_adr\[2\]
*812 sram_adr\[30\]
*813 sram_adr\[31\]
*814 sram_adr\[3\]
*815 sram_adr\[4\]
*816 sram_adr\[5\]
*817 sram_adr\[6\]
*818 sram_adr\[7\]
*819 sram_adr\[8\]
*820 sram_adr\[9\]
*821 sram_cyc
*822 sram_rdat\[0\]
*823 sram_rdat\[10\]
*824 sram_rdat\[11\]
*825 sram_rdat\[12\]
*826 sram_rdat\[13\]
*827 sram_rdat\[14\]
*828 sram_rdat\[15\]
*829 sram_rdat\[16\]
*830 sram_rdat\[17\]
*831 sram_rdat\[18\]
*832 sram_rdat\[19\]
*833 sram_rdat\[1\]
*834 sram_rdat\[20\]
*835 sram_rdat\[21\]
*836 sram_rdat\[22\]
*837 sram_rdat\[23\]
*838 sram_rdat\[24\]
*839 sram_rdat\[25\]
*840 sram_rdat\[26\]
*841 sram_rdat\[27\]
*842 sram_rdat\[28\]
*843 sram_rdat\[29\]
*844 sram_rdat\[2\]
*845 sram_rdat\[30\]
*846 sram_rdat\[31\]
*847 sram_rdat\[3\]
*848 sram_rdat\[4\]
*849 sram_rdat\[5\]
*850 sram_rdat\[6\]
*851 sram_rdat\[7\]
*852 sram_rdat\[8\]
*853 sram_rdat\[9\]
*854 sram_sel\[0\]
*855 sram_sel\[1\]
*856 sram_sel\[2\]
*857 sram_sel\[3\]
*858 sram_stb
*859 sram_wdat\[0\]
*860 sram_wdat\[10\]
*861 sram_wdat\[11\]
*862 sram_wdat\[12\]
*863 sram_wdat\[13\]
*864 sram_wdat\[14\]
*865 sram_wdat\[15\]
*866 sram_wdat\[16\]
*867 sram_wdat\[17\]
*868 sram_wdat\[18\]
*869 sram_wdat\[19\]
*870 sram_wdat\[1\]
*871 sram_wdat\[20\]
*872 sram_wdat\[21\]
*873 sram_wdat\[22\]
*874 sram_wdat\[23\]
*875 sram_wdat\[24\]
*876 sram_wdat\[25\]
*877 sram_wdat\[26\]
*878 sram_wdat\[27\]
*879 sram_wdat\[28\]
*880 sram_wdat\[29\]
*881 sram_wdat\[2\]
*882 sram_wdat\[30\]
*883 sram_wdat\[31\]
*884 sram_wdat\[3\]
*885 sram_wdat\[4\]
*886 sram_wdat\[5\]
*887 sram_wdat\[6\]
*888 sram_wdat\[7\]
*889 sram_wdat\[8\]
*890 sram_wdat\[9\]
*891 sram_we
*892 u_cf_adc_sar12
*893 u_cf_adc_sar12_sar_refs
*894 u_cf_bgr
*895 u_cf_buf_hiz
*896 u_cf_refbuf
*897 u_soc_sys
*898 u_sram

*PORTS
analog_io[0] I
analog_io[10] I
analog_io[11] I
analog_io[12] I
analog_io[13] I
analog_io[14] I
analog_io[15] I
analog_io[16] I
analog_io[17] I
analog_io[18] I
analog_io[19] I
analog_io[1] I
analog_io[20] I
analog_io[21] I
analog_io[22] I
analog_io[23] I
analog_io[24] I
analog_io[25] I
analog_io[26] I
analog_io[27] I
analog_io[28] I
analog_io[2] I
analog_io[3] I
analog_io[4] I
analog_io[5] I
analog_io[6] I
analog_io[7] I
analog_io[8] I
analog_io[9] I
io_in[0] I
io_in[10] I
io_in[11] I
io_in[12] I
io_in[13] I
io_in[14] I
io_in[15] I
io_in[16] I
io_in[17] I
io_in[18] I
io_in[19] I
io_in[1] I
io_in[20] I
io_in[21] I
io_in[22] I
io_in[23] I
io_in[24] I
io_in[25] I
io_in[26] I
io_in[27] I
io_in[28] I
io_in[29] I
io_in[2] I
io_in[30] I
io_in[31] I
io_in[32] I
io_in[33] I
io_in[34] I
io_in[35] I
io_in[36] I
io_in[37] I
io_in[3] I
io_in[4] I
io_in[5] I
io_in[6] I
io_in[7] I
io_in[8] I
io_in[9] I
io_oeb[0] O
io_oeb[10] O
io_oeb[11] O
io_oeb[12] O
io_oeb[13] O
io_oeb[14] O
io_oeb[15] O
io_oeb[16] O
io_oeb[17] O
io_oeb[18] O
io_oeb[19] O
io_oeb[1] O
io_oeb[20] O
io_oeb[21] O
io_oeb[22] O
io_oeb[23] O
io_oeb[24] O
io_oeb[25] O
io_oeb[26] O
io_oeb[27] O
io_oeb[28] O
io_oeb[29] O
io_oeb[2] O
io_oeb[30] O
io_oeb[31] O
io_oeb[32] O
io_oeb[33] O
io_oeb[34] O
io_oeb[35] O
io_oeb[36] O
io_oeb[37] O
io_oeb[3] O
io_oeb[4] O
io_oeb[5] O
io_oeb[6] O
io_oeb[7] O
io_oeb[8] O
io_oeb[9] O
io_out[0] O
io_out[10] O
io_out[11] O
io_out[12] O
io_out[13] O
io_out[14] O
io_out[15] O
io_out[16] O
io_out[17] O
io_out[18] O
io_out[19] O
io_out[1] O
io_out[20] O
io_out[21] O
io_out[22] O
io_out[23] O
io_out[24] O
io_out[25] O
io_out[26] O
io_out[27] O
io_out[28] O
io_out[29] O
io_out[2] O
io_out[30] O
io_out[31] O
io_out[32] O
io_out[33] O
io_out[34] O
io_out[35] O
io_out[36] O
io_out[37] O
io_out[3] O
io_out[4] O
io_out[5] O
io_out[6] O
io_out[7] O
io_out[8] O
io_out[9] O
la_data_in[0] I
la_data_in[100] I
la_data_in[101] I
la_data_in[102] I
la_data_in[103] I
la_data_in[104] I
la_data_in[105] I
la_data_in[106] I
la_data_in[107] I
la_data_in[108] I
la_data_in[109] I
la_data_in[10] I
la_data_in[110] I
la_data_in[111] I
la_data_in[112] I
la_data_in[113] I
la_data_in[114] I
la_data_in[115] I
la_data_in[116] I
la_data_in[117] I
la_data_in[118] I
la_data_in[119] I
la_data_in[11] I
la_data_in[120] I
la_data_in[121] I
la_data_in[122] I
la_data_in[123] I
la_data_in[124] I
la_data_in[125] I
la_data_in[126] I
la_data_in[127] I
la_data_in[12] I
la_data_in[13] I
la_data_in[14] I
la_data_in[15] I
la_data_in[16] I
la_data_in[17] I
la_data_in[18] I
la_data_in[19] I
la_data_in[1] I
la_data_in[20] I
la_data_in[21] I
la_data_in[22] I
la_data_in[23] I
la_data_in[24] I
la_data_in[25] I
la_data_in[26] I
la_data_in[27] I
la_data_in[28] I
la_data_in[29] I
la_data_in[2] I
la_data_in[30] I
la_data_in[31] I
la_data_in[32] I
la_data_in[33] I
la_data_in[34] I
la_data_in[35] I
la_data_in[36] I
la_data_in[37] I
la_data_in[38] I
la_data_in[39] I
la_data_in[3] I
la_data_in[40] I
la_data_in[41] I
la_data_in[42] I
la_data_in[43] I
la_data_in[44] I
la_data_in[45] I
la_data_in[46] I
la_data_in[47] I
la_data_in[48] I
la_data_in[49] I
la_data_in[4] I
la_data_in[50] I
la_data_in[51] I
la_data_in[52] I
la_data_in[53] I
la_data_in[54] I
la_data_in[55] I
la_data_in[56] I
la_data_in[57] I
la_data_in[58] I
la_data_in[59] I
la_data_in[5] I
la_data_in[60] I
la_data_in[61] I
la_data_in[62] I
la_data_in[63] I
la_data_in[64] I
la_data_in[65] I
la_data_in[66] I
la_data_in[67] I
la_data_in[68] I
la_data_in[69] I
la_data_in[6] I
la_data_in[70] I
la_data_in[71] I
la_data_in[72] I
la_data_in[73] I
la_data_in[74] I
la_data_in[75] I
la_data_in[76] I
la_data_in[77] I
la_data_in[78] I
la_data_in[79] I
la_data_in[7] I
la_data_in[80] I
la_data_in[81] I
la_data_in[82] I
la_data_in[83] I
la_data_in[84] I
la_data_in[85] I
la_data_in[86] I
la_data_in[87] I
la_data_in[88] I
la_data_in[89] I
la_data_in[8] I
la_data_in[90] I
la_data_in[91] I
la_data_in[92] I
la_data_in[93] I
la_data_in[94] I
la_data_in[95] I
la_data_in[96] I
la_data_in[97] I
la_data_in[98] I
la_data_in[99] I
la_data_in[9] I
la_data_out[0] O
la_data_out[100] O
la_data_out[101] O
la_data_out[102] O
la_data_out[103] O
la_data_out[104] O
la_data_out[105] O
la_data_out[106] O
la_data_out[107] O
la_data_out[108] O
la_data_out[109] O
la_data_out[10] O
la_data_out[110] O
la_data_out[111] O
la_data_out[112] O
la_data_out[113] O
la_data_out[114] O
la_data_out[115] O
la_data_out[116] O
la_data_out[117] O
la_data_out[118] O
la_data_out[119] O
la_data_out[11] O
la_data_out[120] O
la_data_out[121] O
la_data_out[122] O
la_data_out[123] O
la_data_out[124] O
la_data_out[125] O
la_data_out[126] O
la_data_out[127] O
la_data_out[12] O
la_data_out[13] O
la_data_out[14] O
la_data_out[15] O
la_data_out[16] O
la_data_out[17] O
la_data_out[18] O
la_data_out[19] O
la_data_out[1] O
la_data_out[20] O
la_data_out[21] O
la_data_out[22] O
la_data_out[23] O
la_data_out[24] O
la_data_out[25] O
la_data_out[26] O
la_data_out[27] O
la_data_out[28] O
la_data_out[29] O
la_data_out[2] O
la_data_out[30] O
la_data_out[31] O
la_data_out[32] O
la_data_out[33] O
la_data_out[34] O
la_data_out[35] O
la_data_out[36] O
la_data_out[37] O
la_data_out[38] O
la_data_out[39] O
la_data_out[3] O
la_data_out[40] O
la_data_out[41] O
la_data_out[42] O
la_data_out[43] O
la_data_out[44] O
la_data_out[45] O
la_data_out[46] O
la_data_out[47] O
la_data_out[48] O
la_data_out[49] O
la_data_out[4] O
la_data_out[50] O
la_data_out[51] O
la_data_out[52] O
la_data_out[53] O
la_data_out[54] O
la_data_out[55] O
la_data_out[56] O
la_data_out[57] O
la_data_out[58] O
la_data_out[59] O
la_data_out[5] O
la_data_out[60] O
la_data_out[61] O
la_data_out[62] O
la_data_out[63] O
la_data_out[64] O
la_data_out[65] O
la_data_out[66] O
la_data_out[67] O
la_data_out[68] O
la_data_out[69] O
la_data_out[6] O
la_data_out[70] O
la_data_out[71] O
la_data_out[72] O
la_data_out[73] O
la_data_out[74] O
la_data_out[75] O
la_data_out[76] O
la_data_out[77] O
la_data_out[78] O
la_data_out[79] O
la_data_out[7] O
la_data_out[80] O
la_data_out[81] O
la_data_out[82] O
la_data_out[83] O
la_data_out[84] O
la_data_out[85] O
la_data_out[86] O
la_data_out[87] O
la_data_out[88] O
la_data_out[89] O
la_data_out[8] O
la_data_out[90] O
la_data_out[91] O
la_data_out[92] O
la_data_out[93] O
la_data_out[94] O
la_data_out[95] O
la_data_out[96] O
la_data_out[97] O
la_data_out[98] O
la_data_out[99] O
la_data_out[9] O
la_oenb[0] I
la_oenb[100] I
la_oenb[101] I
la_oenb[102] I
la_oenb[103] I
la_oenb[104] I
la_oenb[105] I
la_oenb[106] I
la_oenb[107] I
la_oenb[108] I
la_oenb[109] I
la_oenb[10] I
la_oenb[110] I
la_oenb[111] I
la_oenb[112] I
la_oenb[113] I
la_oenb[114] I
la_oenb[115] I
la_oenb[116] I
la_oenb[117] I
la_oenb[118] I
la_oenb[119] I
la_oenb[11] I
la_oenb[120] I
la_oenb[121] I
la_oenb[122] I
la_oenb[123] I
la_oenb[124] I
la_oenb[125] I
la_oenb[126] I
la_oenb[127] I
la_oenb[12] I
la_oenb[13] I
la_oenb[14] I
la_oenb[15] I
la_oenb[16] I
la_oenb[17] I
la_oenb[18] I
la_oenb[19] I
la_oenb[1] I
la_oenb[20] I
la_oenb[21] I
la_oenb[22] I
la_oenb[23] I
la_oenb[24] I
la_oenb[25] I
la_oenb[26] I
la_oenb[27] I
la_oenb[28] I
la_oenb[29] I
la_oenb[2] I
la_oenb[30] I
la_oenb[31] I
la_oenb[32] I
la_oenb[33] I
la_oenb[34] I
la_oenb[35] I
la_oenb[36] I
la_oenb[37] I
la_oenb[38] I
la_oenb[39] I
la_oenb[3] I
la_oenb[40] I
la_oenb[41] I
la_oenb[42] I
la_oenb[43] I
la_oenb[44] I
la_oenb[45] I
la_oenb[46] I
la_oenb[47] I
la_oenb[48] I
la_oenb[49] I
la_oenb[4] I
la_oenb[50] I
la_oenb[51] I
la_oenb[52] I
la_oenb[53] I
la_oenb[54] I
la_oenb[55] I
la_oenb[56] I
la_oenb[57] I
la_oenb[58] I
la_oenb[59] I
la_oenb[5] I
la_oenb[60] I
la_oenb[61] I
la_oenb[62] I
la_oenb[63] I
la_oenb[64] I
la_oenb[65] I
la_oenb[66] I
la_oenb[67] I
la_oenb[68] I
la_oenb[69] I
la_oenb[6] I
la_oenb[70] I
la_oenb[71] I
la_oenb[72] I
la_oenb[73] I
la_oenb[74] I
la_oenb[75] I
la_oenb[76] I
la_oenb[77] I
la_oenb[78] I
la_oenb[79] I
la_oenb[7] I
la_oenb[80] I
la_oenb[81] I
la_oenb[82] I
la_oenb[83] I
la_oenb[84] I
la_oenb[85] I
la_oenb[86] I
la_oenb[87] I
la_oenb[88] I
la_oenb[89] I
la_oenb[8] I
la_oenb[90] I
la_oenb[91] I
la_oenb[92] I
la_oenb[93] I
la_oenb[94] I
la_oenb[95] I
la_oenb[96] I
la_oenb[97] I
la_oenb[98] I
la_oenb[99] I
la_oenb[9] I
user_clock2 I
user_irq[0] O
user_irq[1] O
user_irq[2] O
wb_clk_i I
wb_rst_i I
wbs_ack_o O
wbs_adr_i[0] I
wbs_adr_i[10] I
wbs_adr_i[11] I
wbs_adr_i[12] I
wbs_adr_i[13] I
wbs_adr_i[14] I
wbs_adr_i[15] I
wbs_adr_i[16] I
wbs_adr_i[17] I
wbs_adr_i[18] I
wbs_adr_i[19] I
wbs_adr_i[1] I
wbs_adr_i[20] I
wbs_adr_i[21] I
wbs_adr_i[22] I
wbs_adr_i[23] I
wbs_adr_i[24] I
wbs_adr_i[25] I
wbs_adr_i[26] I
wbs_adr_i[27] I
wbs_adr_i[28] I
wbs_adr_i[29] I
wbs_adr_i[2] I
wbs_adr_i[30] I
wbs_adr_i[31] I
wbs_adr_i[3] I
wbs_adr_i[4] I
wbs_adr_i[5] I
wbs_adr_i[6] I
wbs_adr_i[7] I
wbs_adr_i[8] I
wbs_adr_i[9] I
wbs_cyc_i I
wbs_dat_i[0] I
wbs_dat_i[10] I
wbs_dat_i[11] I
wbs_dat_i[12] I
wbs_dat_i[13] I
wbs_dat_i[14] I
wbs_dat_i[15] I
wbs_dat_i[16] I
wbs_dat_i[17] I
wbs_dat_i[18] I
wbs_dat_i[19] I
wbs_dat_i[1] I
wbs_dat_i[20] I
wbs_dat_i[21] I
wbs_dat_i[22] I
wbs_dat_i[23] I
wbs_dat_i[24] I
wbs_dat_i[25] I
wbs_dat_i[26] I
wbs_dat_i[27] I
wbs_dat_i[28] I
wbs_dat_i[29] I
wbs_dat_i[2] I
wbs_dat_i[30] I
wbs_dat_i[31] I
wbs_dat_i[3] I
wbs_dat_i[4] I
wbs_dat_i[5] I
wbs_dat_i[6] I
wbs_dat_i[7] I
wbs_dat_i[8] I
wbs_dat_i[9] I
wbs_dat_o[0] O
wbs_dat_o[10] O
wbs_dat_o[11] O
wbs_dat_o[12] O
wbs_dat_o[13] O
wbs_dat_o[14] O
wbs_dat_o[15] O
wbs_dat_o[16] O
wbs_dat_o[17] O
wbs_dat_o[18] O
wbs_dat_o[19] O
wbs_dat_o[1] O
wbs_dat_o[20] O
wbs_dat_o[21] O
wbs_dat_o[22] O
wbs_dat_o[23] O
wbs_dat_o[24] O
wbs_dat_o[25] O
wbs_dat_o[26] O
wbs_dat_o[27] O
wbs_dat_o[28] O
wbs_dat_o[29] O
wbs_dat_o[2] O
wbs_dat_o[30] O
wbs_dat_o[31] O
wbs_dat_o[3] O
wbs_dat_o[4] O
wbs_dat_o[5] O
wbs_dat_o[6] O
wbs_dat_o[7] O
wbs_dat_o[8] O
wbs_dat_o[9] O
wbs_sel_i[0] I
wbs_sel_i[1] I
wbs_sel_i[2] I
wbs_sel_i[3] I
wbs_stb_i I
wbs_we_i I

*D_NET *1 0.297314
*CONN
*P analog_io[0] I
*I *894:vb2_fast I *D CF_BGR
*CAP
1 analog_io[0] 0.123774
2 *894:vb2_fast 0.000421136
3 *1:13 0.0130513
4 *1:5 0.136404
5 *1:13 *80:22 0.023664
6 *1:13 *81:14 0
*RES
1 analog_io[0] *1:5 324.564 
2 *1:5 *1:13 49.8769 
3 *1:13 *894:vb2_fast 9.84625 
*END

*D_NET *12 0.345711
*CONN
*P analog_io[1] I
*I *895:vinp_p I *D CF_BUF_HIZ
*CAP
1 analog_io[1] 0.120228
2 *895:vinp_p 0.00425004
3 *12:15 0.022737
4 *12:9 0.0436922
5 *12:7 0.0252052
6 *12:5 0.120228
7 *895:vinp_p *895:clk2_boost 0
8 *895:vinp_p *895:vinp_na 1.82443e-05
9 *895:vinp_p *895:vinn_na 1.04625e-05
10 *895:vinp_p *895:vinn_p 1.17614e-05
11 *895:vinp_p *75:30 0.00932959
12 *12:5 *67:71 0
*RES
1 analog_io[1] *12:5 296.625 
2 *12:5 *12:7 0.5 
3 *12:7 *12:9 455.025 
4 *12:9 *12:15 48.4379 
5 *12:15 *895:vinp_p 21.4725 
*END

*D_NET *13 0.277218
*CONN
*P analog_io[20] I
*I *892:vinm I *D CF_ADC_SAR12
*CAP
1 analog_io[20] 0.00188069
2 *892:vinm 0.00653197
3 *13:15 0.0876535
4 *13:13 0.0811216
5 *13:11 0.046392
6 *13:9 0.0482727
7 *892:vinm *892:vreflo 0
8 *892:vinm *892:vinp 0.00100182
9 *892:vinm *659:39 0.000961413
10 *13:15 *28:24 0.00340234
*RES
1 analog_io[20] *13:9 4.46247 
2 *13:9 *13:11 121.932 
3 *13:11 *13:13 0.5 
4 *13:13 *13:15 218.731 
5 *13:15 *892:vinm 19.0478 
*END

*D_NET *14 0.326265
*CONN
*P analog_io[21] I
*I *893:refout O *D CF_ADC_SAR12_sar_refs
*CAP
1 analog_io[21] 0.00190953
2 *893:refout 0.00175604
3 *14:19 0.0790792
4 *14:17 0.0771697
5 *14:15 0.0822492
6 *14:13 0.0840052
7 *14:13 *893:IREF_VREFBUF 9.56939e-05
8 *14:13 *662:17 0
*RES
1 *893:refout *14:13 5.6683 
2 *14:13 *14:15 223.985 
3 *14:15 *14:17 0.5 
4 *14:17 *14:19 203.156 
5 *14:19 analog_io[21] 4.46247 
*END

*D_NET *15 0.22587
*CONN
*P analog_io[22] I
*I *892:vreflo I *D CF_ADC_SAR12
*CAP
1 analog_io[22] 0.00194864
2 *892:vreflo 0.00313036
3 *15:15 0.0576211
4 *15:13 0.0544907
5 *15:11 0.050037
6 *15:9 0.0519857
7 *892:vreflo *892:vinp 0.00100182
8 *892:vreflo *659:39 0.000852712
9 *15:15 *709:17 6.83049e-06
10 *15:15 *711:21 0.00479513
11 *15:15 *712:17 0
12 *892:vinm *892:vreflo 0
*RES
1 analog_io[22] *15:9 4.46247 
2 *15:9 *15:11 131.488 
3 *15:11 *15:13 0.5 
4 *15:13 *15:15 152.063 
5 *15:15 *892:vreflo 9.49207 
*END

*D_NET *17 0.0213862
*CONN
*P analog_io[24] I
*I *894:dft_curr_in I *D CF_BGR
*CAP
1 analog_io[24] 0.00236259
2 *894:dft_curr_in 0.00315201
3 *17:11 0.00672444
4 *17:9 0.00593502
5 *17:9 *124:17 0.000234659
6 *17:11 *82:17 0.00297743
*RES
1 analog_io[24] *17:9 5.53373 
2 *17:9 *17:11 64.875 
3 *17:11 *894:dft_curr_in 10.205 
*END

*D_NET *18 0.20919
*CONN
*P analog_io[25] I
*I *892:vdda I *D CF_ADC_SAR12
*I *893:vdda I *D CF_ADC_SAR12_sar_refs
*CAP
1 analog_io[25] 0.00812807
2 *892:vdda 2.74782e-05
3 *893:vdda 0.0165561
4 *18:29 0.0427361
5 *18:27 0.0293732
6 *18:23 0.0120659
7 *18:19 0.0501641
8 *18:17 0.0494469
9 *892:vdda *892:pd 2.20023e-05
10 *893:vdda *893:VPUMP 0.00067018
11 *18:29 *655:27 0
*RES
1 analog_io[25] *18:17 45.5566 
2 *18:17 *18:19 107.511 
3 *18:19 *18:23 23.7079 
4 *18:23 *18:27 8.8068 
5 *18:27 *18:29 63.3156 
6 *18:29 *893:vdda 41.8652 
7 *18:23 *892:vdda 1.06713 
*END

*D_NET *19 0.208857
*CONN
*P analog_io[26] I
*I *892:vssa I *D CF_ADC_SAR12
*I *893:vssa_shield I *D CF_ADC_SAR12_sar_refs
*I *893:vssa I *D CF_ADC_SAR12_sar_refs
*CAP
1 analog_io[26] 0.00205483
2 *892:vssa 0.00113474
3 *893:vssa_shield 0.000614274
4 *893:vssa 0.0446489
5 *19:27 0.0583206
6 *19:13 0.0154207
7 *19:11 0.0391157
8 *19:9 0.0411705
9 *892:vssa *892:pd_ana 0
10 *893:vssa *893:S_LV[4] 0.00117202
11 *893:vssa *893:S_LV[3] 0.00117202
12 *893:vssa *893:S_LV[2] 0.00117202
13 *893:vssa *893:S_LV[1] 0.00117202
14 *893:vssa *893:S_LV[0] 0.00168886
*RES
1 analog_io[26] *19:9 4.46247 
2 *19:9 *19:11 102.558 
3 *19:11 *19:13 0.5 
4 *19:13 *19:27 34.4418 
5 *19:27 *893:vssa 48.8104 
6 *893:vssa *893:vssa_shield 8.1 
7 *19:13 *892:vssa 20.6775 
*END

*D_NET *20 0.197996
*CONN
*P analog_io[27] I
*I *892:VPUMP I *D CF_ADC_SAR12
*I *893:VPUMP I *D CF_ADC_SAR12_sar_refs
*CAP
1 analog_io[27] 0.0459145
2 *892:VPUMP 0.0098659
3 *893:VPUMP 0.00312141
4 *20:29 0.0328075
5 *20:27 0.0296861
6 *20:25 0.0027275
7 *20:23 0.00333894
8 *20:17 0.0563918
9 *892:VPUMP *528:19 0.0109655
10 *892:VPUMP *784:23 0
11 *20:17 *92:17 0.000205264
12 *20:17 *528:19 3.26119e-05
13 *20:25 *760:33 0.00226851
14 *20:29 *67:181 0
15 *893:vdda *893:VPUMP 0.00067018
*RES
1 analog_io[27] *20:17 14.3413 
2 *20:17 *20:23 2.64033 
3 *20:23 *20:25 49.575 
4 *20:25 *20:27 0.5 
5 *20:27 *20:29 76.513 
6 *20:29 *893:VPUMP 9.8236 
7 *20:17 *892:VPUMP 36.2833 
*END

*D_NET *22 0.356457
*CONN
*P analog_io[2] I
*I *895:vinn_p I *D CF_BUF_HIZ
*CAP
1 analog_io[2] 0.130146
2 *895:vinn_p 0.000967974
3 *22:9 0.0475305
4 *22:7 0.0465626
5 *22:5 0.130146
6 *895:vinn_p *895:vinp_n 0.00107724
7 *895:vinn_p *895:vinn_na 1.3633e-05
8 *22:5 *67:27 0
9 *895:vinp_p *895:vinn_p 1.17614e-05
*RES
1 analog_io[2] *22:5 342.161 
2 *22:5 *22:7 0.5 
3 *22:7 *22:9 126.74 
4 *22:9 *895:vinn_p 11.742 
*END

*D_NET *23 0.400533
*CONN
*P analog_io[3] I
*I *895:vinp_n I *D CF_BUF_HIZ
*CAP
1 analog_io[3] 0.129362
2 *895:vinp_n 0.00144769
3 *23:9 0.0672681
4 *23:7 0.0658204
5 *23:5 0.129362
6 *895:vinp_n *895:clk2_boost 6.40828e-05
7 *895:vinp_n *895:clk1_boostr 0.000122657
8 *895:vinp_n *895:vinp_na 4.47665e-05
9 *895:vinp_n *895:e_n_boost 3.07325e-05
10 *23:9 *120:14 0.00593304
11 *895:vinn_p *895:vinp_n 0.00107724
*RES
1 analog_io[3] *23:5 340.413 
2 *23:5 *23:7 0.5 
3 *23:7 *23:9 160.246 
4 *23:9 *895:vinp_n 15.4688 
*END

*D_NET *24 0.449718
*CONN
*P analog_io[4] I
*I *895:vinn_n I *D CF_BUF_HIZ
*CAP
1 analog_io[4] 0.000201017
2 *895:vinn_n 0.00196325
3 *24:17 0.0205831
4 *24:15 0.0186198
5 *24:13 0.129194
6 *24:11 0.129194
7 *24:9 0.02911
8 *24:7 0.029311
9 *895:vinn_n *895:clk2_boost 1.92979e-05
10 *895:vinn_n *895:vinp_na 0.00375282
11 *895:vinn_n *895:vinn_na 0.00764335
12 *895:vinn_n *895:e_na_boost 3.96411e-05
13 *895:vinn_n *710:29 0.00267066
14 *895:vinn_n *732:29 0.00054877
15 *24:9 *26:9 0.0269112
16 *24:9 *65:9 0.000918252
17 *24:9 *69:25 0.0290939
18 *24:9 *71:33 0.00213909
19 *24:9 *141:25 0.00259764
20 *24:13 *894:trimTC[4] 2.20023e-05
21 *24:13 *894:trimTC[3] 8.29347e-05
22 *24:13 *894:trimTC[0] 4.24839e-05
23 *24:13 *894:trimTC[1] 0.000153464
24 *24:13 *71:29 0
25 *24:13 *81:20 0
26 *24:13 *768:18 0
27 *24:17 *77:17 0.0145369
28 *24:17 *115:14 0
29 *24:17 *115:24 0.000369321
*RES
1 analog_io[4] *24:7 0.897733 
2 *24:7 *24:9 757.455 
3 *24:9 *24:11 0.5 
4 *24:11 *24:13 330.031 
5 *24:13 *24:15 0.5 
6 *24:15 *24:17 67.1359 
7 *24:17 *895:vinn_n 16.7592 
*END

*D_NET *25 0.459592
*CONN
*P analog_io[5] I
*I *895:vinp_na I *D CF_BUF_HIZ
*CAP
1 analog_io[5] 0.000577178
2 *895:vinp_na 0.00090132
3 *25:17 0.0686502
4 *25:15 0.0677489
5 *25:13 0.127922
6 *25:11 0.128499
7 *895:vinp_na *895:clk2_boost 5.69553e-05
8 *895:vinp_na *895:e_n_boost 1.21705e-05
9 *895:vinp_na *710:29 0.0037502
10 *25:11 *26:9 0
11 *25:17 *69:17 0.0361599
12 *25:17 *771:17 0.0212129
13 *25:17 *772:31 0.000285178
14 *895:vinp_n *895:vinp_na 4.47665e-05
15 *895:vinn_n *895:vinp_na 0.00375282
16 *895:vinp_p *895:vinp_na 1.82443e-05
*RES
1 analog_io[5] *25:11 6.44233 
2 *25:11 *25:13 337.023 
3 *25:13 *25:15 0.5 
4 *25:15 *25:17 227.861 
5 *25:17 *895:vinp_na 12.7128 
*END

*D_NET *26 0.529262
*CONN
*P analog_io[6] I
*I *895:vinn_na I *D CF_BUF_HIZ
*CAP
1 analog_io[6] 9.40013e-05
2 *895:vinn_na 0.00167557
3 *26:17 0.0161261
4 *26:15 0.0144506
5 *26:13 0.126618
6 *26:11 0.126618
7 *26:9 0.0300686
8 *26:7 0.0301626
9 *895:vinn_na *895:clk2_boost 5.61242e-05
10 *895:vinn_na *895:clk1_boostr 0
11 *895:vinn_na *732:29 0.00442523
12 *26:9 *66:9 0.00023629
13 *26:9 *71:33 0.029907
14 *26:9 *72:17 0.0115167
15 *26:9 *108:17 0.031071
16 *26:9 *141:25 0.00678679
17 *26:9 *142:30 0.0245979
18 *26:13 *67:95 0.00021181
19 *26:13 *774:22 0
20 *26:17 *894:mux1sel[0] 0.00484417
21 *26:17 *770:25 0.0352169
22 *895:vinn_n *895:vinn_na 0.00764335
23 *895:vinn_p *895:vinn_na 1.3633e-05
24 *895:vinp_p *895:vinn_na 1.04625e-05
25 *24:9 *26:9 0.0269112
26 *25:11 *26:9 0
*RES
1 analog_io[6] *26:7 0.722933 
2 *26:7 *26:9 1171.57 
3 *26:9 *26:11 0.5 
4 *26:11 *26:13 332.071 
5 *26:13 *26:15 0.5 
6 *26:15 *26:17 64.5519 
7 *26:17 *895:vinn_na 15.5535 
*END

*D_NET *27 0.332378
*CONN
*P analog_io[7] I
*I *896:ch1 I *D CF_REFBUF
*I *896:ch2 I *D CF_REFBUF
*I *896:out O *D CF_REFBUF
*CAP
1 analog_io[7] 0.0959397
2 *896:ch1 0.000183758
3 *896:ch2 0.00251123
4 *896:out 0.00318753
5 *27:46 0.0959397
6 *27:44 0.0668782
7 *27:42 0.0677382
8 *896:ch2 *896:switchon 0
*RES
1 *896:out *896:ch2 7.38907 
2 *896:ch2 *896:ch1 5.0975 
3 *896:out *27:42 19.15 
4 *27:42 *27:44 1217.86 
5 *27:44 *27:46 0.5 
6 *27:46 analog_io[7] 252.925 
*END

*D_NET *28 0.355688
*CONN
*P analog_io[8] I
*I *896:ng I *D CF_REFBUF
*I *896:vpwre I *D CF_REFBUF
*CAP
1 analog_io[8] 0.0769839
2 *896:ng 0.000459645
3 *896:vpwre 0.00360402
4 *28:24 0.00504581
5 *28:22 0.00458617
6 *28:13 0.00385082
7 *28:9 0.0905093
8 *28:7 0.0902625
9 *28:5 0.0769839
10 *13:15 *28:24 0.00340234
*RES
1 analog_io[8] *28:5 1402.04 
2 *28:5 *28:7 0.5 
3 *28:7 *28:9 238.028 
4 *28:9 *28:13 0.685267 
5 *28:13 *896:vpwre 10.2685 
6 *28:13 *28:22 0.5 
7 *28:22 *28:24 83.235 
8 *28:24 *896:ng 5.07643 
*END

*D_NET *31 0.932942
*CONN
*P io_in[10] I
*I *897:io_in[3] I *D soc_sys
*CAP
1 io_in[10] 0.00101267
2 *897:io_in[3] 0.000374988
3 *31:23 0.00209211
4 *31:21 0.173635
5 *31:9 0.250055
6 *31:7 0.0791496
7 *897:io_in[3] *118:17 0.000105448
8 *31:9 *32:9 0.0063062
9 *31:9 *33:9 0.00664756
10 *31:9 *34:9 0.0375017
11 *31:9 *35:9 0.059238
12 *31:9 *105:33 0.105036
13 *31:9 *107:25 0.0063062
14 *31:9 *109:25 0.00106647
15 *31:9 *111:31 0.000992459
16 *31:9 *143:51 0.00578222
17 *31:9 *528:11 0.0118854
18 *31:21 *898:wbs_dat_i[8] 0.0040077
19 *31:21 *898:wbs_we_i 0.00353076
20 *31:21 *34:23 0.00530257
21 *31:21 *35:23 0.00391394
22 *31:21 *36:19 0.00208714
23 *31:21 *37:17 1.77858e-05
24 *31:21 *66:13 0.0916595
25 *31:21 *557:11 0.00532785
26 *31:21 *570:13 0.002789
27 *31:21 *574:17 0.00123576
28 *31:21 *581:17 0.00519422
29 *31:21 *582:13 0.00403284
30 *31:21 *585:19 0.0059412
31 *31:21 *593:15 0.00364032
32 *31:21 *594:15 0.00761678
33 *31:21 *609:16 0.00387051
34 *31:21 *626:14 0.00567732
35 *31:21 *629:14 0.00743922
36 *31:21 *872:15 0.00685071
37 *31:21 *887:15 0.00397904
38 *31:23 *33:25 0.00656446
39 *31:23 *34:25 3.20476e-05
40 *31:23 *37:21 0.00097324
41 *31:23 *103:33 0.00407047
42 *31:23 *542:38 0
*RES
1 io_in[10] *31:7 2.6166 
2 *31:7 *31:9 279.627 
3 *31:9 *31:21 39.7263 
4 *31:21 *31:23 79.155 
5 *31:23 *897:io_in[3] 1.24733 
*END

*D_NET *32 0.944207
*CONN
*P io_in[11] I
*I *897:io_in[4] I *D soc_sys
*CAP
1 io_in[11] 0.000802583
2 *897:io_in[4] 0.000147072
3 *32:25 0.00156162
4 *32:23 0.00141455
5 *32:21 0.0207608
6 *32:19 0.0208455
7 *32:13 0.0289559
8 *32:11 0.0288713
9 *32:9 0.0288354
10 *32:7 0.029638
11 *897:io_in[4] *897:io_in[5] 0
12 *897:io_in[4] *118:17 0.000137406
13 *32:9 *33:9 0.165543
14 *32:9 *105:33 0.0225403
15 *32:9 *107:25 0.15008
16 *32:9 *143:51 0.000656317
17 *32:13 *33:13 0.134346
18 *32:13 *38:9 0.0718006
19 *32:13 *871:15 0.00573431
20 *32:19 *38:15 5.75434e-05
21 *32:19 *871:9 0
22 *32:21 *36:9 0.00208716
23 *32:21 *38:17 0.105034
24 *32:21 *110:13 0.103899
25 *32:21 *852:9 0.000643964
26 *32:21 *869:15 1.95991e-05
27 *32:25 *36:21 0.00669443
28 *32:25 *40:37 0.00511889
29 *32:25 *142:16 0.000982652
30 *32:25 *542:38 0.000693095
31 *31:9 *32:9 0.0063062
*RES
1 io_in[11] *32:7 2.29613 
2 *32:7 *32:9 1851.53 
3 *32:9 *32:11 2 
4 *32:11 *32:13 1214.85 
5 *32:13 *32:19 3.7525 
6 *32:19 *32:21 161.029 
7 *32:21 *32:23 0.5 
8 *32:23 *32:25 77.625 
9 *32:25 *897:io_in[4] 0.897733 
*END

*D_NET *33 0.937557
*CONN
*P io_in[12] I
*I *897:io_in[5] I *D soc_sys
*CAP
1 io_in[12] 0.000769738
2 *897:io_in[5] 0.000382126
3 *33:25 0.00209242
4 *33:23 0.0017103
5 *33:21 0.0245595
6 *33:19 0.0246128
7 *33:13 0.0176042
8 *33:11 0.0175509
9 *33:9 0.033395
10 *33:7 0.0341647
11 *897:io_in[5] *897:io_in[6] 0
12 *33:9 *34:9 0.000708478
13 *33:9 *105:33 0.0242212
14 *33:9 *109:25 0.0207201
15 *33:9 *111:31 0.145971
16 *33:9 *528:11 0
17 *33:13 *34:13 0.0212489
18 *33:13 *37:9 0.0999111
19 *33:13 *38:9 2.0514e-05
20 *33:13 *869:15 0.00545034
21 *33:21 *37:17 0.049048
22 *33:21 *38:17 0.0530361
23 *33:21 *66:13 0
24 *33:21 *569:17 0.0124704
25 *33:21 *629:14 0.0260395
26 *33:21 *869:15 0.00204131
27 *33:21 *872:15 0.000234348
28 *33:21 *887:15 0.000446274
29 *33:25 *34:25 0.00131528
30 *33:25 *37:21 0
31 *33:25 *42:21 0.00473073
32 *897:io_in[4] *897:io_in[5] 0
33 *31:9 *33:9 0.00664756
34 *31:23 *33:25 0.00656446
35 *32:9 *33:9 0.165543
36 *32:13 *33:13 0.134346
*RES
1 io_in[12] *33:7 2.3544 
2 *33:7 *33:9 2050.18 
3 *33:9 *33:11 2 
4 *33:11 *33:13 1225.2 
5 *33:13 *33:19 3.2425 
6 *33:19 *33:21 159.514 
7 *33:21 *33:23 0.5 
8 *33:23 *33:25 82.215 
9 *33:25 *897:io_in[5] 1.18907 
*END

*D_NET *34 1.05349
*CONN
*P io_in[13] I
*I *897:io_in[6] I *D soc_sys
*CAP
1 io_in[13] 0.000811496
2 *897:io_in[6] 0.000301109
3 *34:25 0.00198274
4 *34:23 0.00801973
5 *34:19 0.00648864
6 *34:13 0.0304508
7 *34:11 0.0303003
8 *34:9 0.0314175
9 *34:7 0.032229
10 *897:io_in[6] *897:io_in[7] 0
11 *34:9 *35:9 0.201093
12 *34:9 *109:25 0.186071
13 *34:9 *111:31 0.00777412
14 *34:13 *35:13 0.204248
15 *34:13 *37:9 0.153799
16 *34:13 *38:17 0.0195819
17 *34:13 *869:15 0.00516143
18 *34:23 *35:23 0.00399501
19 *34:23 *36:19 0.00610148
20 *34:23 *37:17 0.032714
21 *34:23 *609:16 0.0124138
22 *34:25 *35:25 0.00743601
23 *34:25 *42:21 0.00499402
24 *897:io_in[5] *897:io_in[6] 0
25 *31:9 *34:9 0.0375017
26 *31:21 *34:23 0.00530257
27 *31:23 *34:25 3.20476e-05
28 *33:9 *34:9 0.000708478
29 *33:13 *34:13 0.0212489
30 *33:25 *34:25 0.00131528
*RES
1 io_in[13] *34:7 2.5292 
2 *34:7 *34:9 2249.08 
3 *34:9 *34:11 2 
4 *34:11 *34:13 1878.97 
5 *34:13 *34:19 4.7725 
6 *34:19 *34:23 49.3072 
7 *34:23 *34:25 86.295 
8 *34:25 *897:io_in[6] 1.07253 
*END

*D_NET *35 1.00996
*CONN
*P io_in[14] I
*I *897:io_in[7] I *D soc_sys
*CAP
1 io_in[14] 0.000822764
2 *897:io_in[7] 0.000237768
3 *35:25 0.00194774
4 *35:23 0.00594612
5 *35:13 0.036192
6 *35:11 0.0319558
7 *35:9 0.0849523
8 *35:7 0.085775
9 *897:io_in[7] *897:io_in[8] 0
10 *897:io_in[7] *143:37 8.14052e-05
11 *35:9 *111:31 0.00768795
12 *35:9 *528:11 0
13 *35:13 *36:9 0.20766
14 *35:13 *38:17 0.0233537
15 *35:13 *869:15 0.00475817
16 *35:23 *36:19 0.0106512
17 *35:23 *66:13 0.019969
18 *35:23 *609:16 5.91244e-05
19 *35:23 *609:20 5.25082e-05
20 *35:25 *36:21 0.00778694
21 *35:25 *42:21 0.000151052
22 *35:25 *542:38 0
23 *897:io_in[6] *897:io_in[7] 0
24 *31:9 *35:9 0.059238
25 *31:21 *35:23 0.00391394
26 *34:9 *35:9 0.201093
27 *34:13 *35:13 0.204248
28 *34:23 *35:23 0.00399501
29 *34:25 *35:25 0.00743601
*RES
1 io_in[14] *35:7 2.58747 
2 *35:7 *35:9 2448.23 
3 *35:9 *35:11 2 
4 *35:11 *35:13 1987.31 
5 *35:13 *35:23 37.4524 
6 *35:23 *35:25 90.885 
7 *35:25 *897:io_in[7] 1.01427 
*END

*D_NET *36 0.684442
*CONN
*P io_in[15] I
*I *897:io_in[8] I *D soc_sys
*CAP
1 io_in[15] 0.141274
2 *897:io_in[8] 0.000203257
3 *36:21 0.0020518
4 *36:19 0.00422943
5 *36:9 0.0746861
6 *36:7 0.0723052
7 *36:5 0.141274
8 *897:io_in[8] *897:io_in[9] 0
9 *897:io_in[8] *143:37 7.19377e-05
10 *36:9 *898:wbs_sel_i[2] 0.00328045
11 *36:9 *39:29 0
12 *36:9 *852:9 0.000227313
13 *36:9 *869:15 0.00107843
14 *36:21 *40:37 0.000590287
15 *36:21 *42:21 0.000101995
16 *36:21 *542:38 0
17 *897:io_in[7] *897:io_in[8] 0
18 *31:21 *36:19 0.00208714
19 *32:21 *36:9 0.00208716
20 *32:25 *36:21 0.00669443
21 *34:23 *36:19 0.00610148
22 *35:13 *36:9 0.20766
23 *35:23 *36:19 0.0106512
24 *35:25 *36:21 0.00778694
*RES
1 io_in[15] *36:5 2571.34 
2 *36:5 *36:7 2 
3 *36:7 *36:9 1995.58 
4 *36:9 *36:19 22.689 
5 *36:19 *36:21 93.435 
6 *36:21 *897:io_in[8] 0.956 
*END

*D_NET *37 0.758569
*CONN
*P io_in[16] I
*I *897:io_in[9] I *D soc_sys
*CAP
1 io_in[16] 0.139585
2 *897:io_in[9] 0.000494627
3 *37:21 0.00273333
4 *37:19 0.0022387
5 *37:17 0.00884265
6 *37:15 0.0089424
7 *37:9 0.0305909
8 *37:7 0.0304911
9 *37:5 0.139585
10 *897:io_in[9] *897:io_in[10] 0
11 *37:5 *67:73 0.00762118
12 *37:9 *38:17 0.0241002
13 *37:9 *869:15 0.00669621
14 *37:17 *38:17 4.47162e-05
15 *37:17 *585:19 0.00132495
16 *37:17 *594:15 0.00286617
17 *37:17 *609:16 0.00464553
18 *37:17 *629:14 2.22315e-05
19 *37:21 *38:21 0.00806136
20 *37:21 *42:21 0
21 *37:21 *103:33 0.00231647
22 *37:21 *107:9 0.000888808
23 *37:21 *114:9 1.4548e-05
24 *897:io_in[8] *897:io_in[9] 0
25 *31:21 *37:17 1.77858e-05
26 *31:23 *37:21 0.00097324
27 *33:13 *37:9 0.0999111
28 *33:21 *37:17 0.049048
29 *33:25 *37:21 0
30 *34:13 *37:9 0.153799
31 *34:23 *37:17 0.032714
*RES
1 io_in[16] *37:5 2572.11 
2 *37:5 *37:7 2 
3 *37:7 *37:9 1414.6 
4 *37:9 *37:15 4.0075 
5 *37:15 *37:17 73.3957 
6 *37:17 *37:19 0.5 
7 *37:19 *37:21 94.965 
8 *37:21 *897:io_in[9] 1.42213 
*END

*D_NET *38 0.71581
*CONN
*P io_in[17] I
*I *897:io_in[10] I *D soc_sys
*CAP
1 io_in[17] 0.141404
2 *897:io_in[10] 0.000526818
3 *38:21 0.00341894
4 *38:19 0.00289212
5 *38:17 0.0225388
6 *38:15 0.0226012
7 *38:9 0.0232422
8 *38:7 0.0231798
9 *38:5 0.141404
10 *897:io_in[10] *897:io_in[11] 0
11 *38:9 *871:15 0.010512
12 *38:15 *871:9 0
13 *38:17 *110:13 0.00017096
14 *38:17 *569:17 0.0124659
15 *38:17 *869:15 0.00321539
16 *38:21 *39:41 0
17 *38:21 *44:29 0
18 *38:21 *74:31 0.00299843
19 *38:21 *107:9 0.000149226
20 *897:io_in[9] *897:io_in[10] 0
21 *32:13 *38:9 0.0718006
22 *32:19 *38:15 5.75434e-05
23 *32:21 *38:17 0.105034
24 *33:13 *38:9 2.0514e-05
25 *33:21 *38:17 0.0530361
26 *34:13 *38:17 0.0195819
27 *35:13 *38:17 0.0233537
28 *37:9 *38:17 0.0241002
29 *37:17 *38:17 4.47162e-05
30 *37:21 *38:21 0.00806136
*RES
1 io_in[17] *38:5 2572.88 
2 *38:5 *38:7 2 
3 *38:7 *38:9 649.395 
4 *38:9 *38:15 3.4975 
5 *38:15 *38:17 161.553 
6 *38:17 *38:19 0.5 
7 *38:19 *38:21 96.495 
8 *38:21 *897:io_in[10] 1.4804 
*END

*D_NET *39 0.570438
*CONN
*P io_in[18] I
*I *897:io_in[11] I *D soc_sys
*CAP
1 io_in[18] 0.00154394
2 *897:io_in[11] 0.000783317
3 *39:41 0.00280591
4 *39:39 0.00202259
5 *39:37 0.0388271
6 *39:35 0.0388732
7 *39:29 0.0188954
8 *39:27 0.0192537
9 *39:17 0.159325
10 *39:15 0.160465
11 *897:io_in[11] *897:io_in[12] 0
12 *39:15 *75:34 0.000769104
13 *39:15 *112:41 0.00140533
14 *39:27 *110:21 0.000111837
15 *39:29 *898:wbs_dat_i[11] 0.000473151
16 *39:29 *898:wbs_dat_i[4] 0.00318572
17 *39:29 *110:21 0
18 *39:29 *840:9 0
19 *39:29 *862:13 0.00599986
20 *39:29 *863:21 6.5315e-05
21 *39:29 *866:21 0
22 *39:29 *867:17 0
23 *39:35 *890:9 0
24 *39:37 *898:wbs_dat_i[0] 0.0014388
25 *39:37 *110:13 0.0385264
26 *39:37 *143:39 0
27 *39:37 *556:15 0.00012423
28 *39:37 *559:21 0.00454362
29 *39:37 *590:15 0.0354533
30 *39:37 *607:21 0.017925
31 *39:37 *622:16 1.19333e-05
32 *39:37 *639:16 0.000144638
33 *39:37 *851:11 0.00241685
34 *39:41 io_out[37] 0.000451303
35 *39:41 *897:io_in[30] 0.000737825
36 *39:41 *43:37 0.00734991
37 *39:41 *44:29 0
38 *39:41 *109:9 0.00115442
39 *39:41 *110:9 0
40 *39:41 *113:9 0.000126798
41 *39:41 *118:19 0.00522786
42 *897:io_in[10] *897:io_in[11] 0
43 *36:9 *39:29 0
44 *38:21 *39:41 0
*RES
1 io_in[18] *39:15 7.8175 
2 *39:15 *39:17 433.547 
3 *39:17 *39:27 5.78383 
4 *39:27 *39:29 377.88 
5 *39:29 *39:35 3.2425 
6 *39:35 *39:37 161.262 
7 *39:37 *39:39 0.5 
8 *39:39 *39:41 97.005 
9 *39:41 *897:io_in[11] 2.06307 
*END

*D_NET *40 0.644442
*CONN
*P io_in[19] I
*I *897:io_in[12] I *D soc_sys
*CAP
1 io_in[19] 0.00367441
2 *897:io_in[12] 0.00015302
3 *40:37 0.00338595
4 *40:35 0.00391062
5 *40:25 0.0228422
6 *40:23 0.0221645
7 *40:21 0.00661022
8 *40:19 0.00846813
9 *40:13 0.157029
10 *40:11 0.158846
11 *897:io_in[12] *897:io_in[13] 0
12 *40:11 *75:34 0.010607
13 *40:11 *77:21 0.00404604
14 *40:11 *116:27 0.0114111
15 *40:13 *726:9 0.0334069
16 *40:13 *755:9 0
17 *40:13 *815:9 0.000528293
18 *40:13 *818:9 0.000933326
19 *40:13 *821:9 0.000602531
20 *40:13 *856:9 0.000528293
21 *40:19 *758:23 0.00129992
22 *40:19 *778:7 0.00414719
23 *40:19 *780:7 0.000569494
24 *40:21 *647:25 0
25 *40:21 *665:9 0.00024553
26 *40:21 *762:15 0.000238779
27 *40:21 *770:9 0.000676767
28 *40:21 *772:11 0.000501797
29 *40:21 *826:21 0.00583584
30 *40:25 *43:25 0
31 *40:25 *104:22 0.00579594
32 *40:25 *109:21 0
33 *40:25 *112:33 0.0963308
34 *40:25 *540:50 0.0162667
35 *40:25 *646:22 0.0484359
36 *40:35 *104:22 0.00322732
37 *40:35 *107:21 6.2397e-05
38 *40:35 *112:31 0.000645987
39 *40:35 *112:33 0.00108026
40 *40:35 *118:43 0.000546466
41 *40:35 *542:36 0.000257259
42 *40:35 *644:17 0.00243864
43 *40:37 *42:21 0
44 *40:37 *104:18 0
45 *40:37 *118:11 0
46 *40:37 *142:16 0.000982652
47 *897:io_in[11] *897:io_in[12] 0
48 *32:25 *40:37 0.00511889
49 *36:21 *40:37 0.000590287
*RES
1 io_in[19] *40:11 29.8602 
2 *40:11 *40:13 402.97 
3 *40:13 *40:19 7.65127 
4 *40:19 *40:21 163.688 
5 *40:21 *40:23 2 
6 *40:23 *40:25 883.995 
7 *40:25 *40:35 8.5145 
8 *40:35 *40:37 81.705 
9 *40:37 *897:io_in[12] 0.839467 
*END

*D_NET *42 0.541593
*CONN
*P io_in[20] I
*I *897:io_in[13] I *D soc_sys
*CAP
1 io_in[20] 0.00151694
2 *897:io_in[13] 0.000307728
3 *42:21 0.0021445
4 *42:19 0.00183677
5 *42:17 0.0408892
6 *42:15 0.0408892
7 *42:13 0.12776
8 *42:11 0.129277
9 *897:io_in[13] *897:io_in[14] 0
10 *42:11 *75:34 0.00466415
11 *42:11 *116:27 0.00806082
12 *42:13 *685:9 0
13 *42:13 *692:9 0
14 *42:13 *695:9 0.0618166
15 *42:13 *707:9 7.92366e-05
16 *42:13 *715:9 0
17 *42:13 *728:9 0
18 *42:13 *854:9 0.0074679
19 *42:13 *857:9 0
20 *42:13 *890:9 0
21 *42:17 *103:35 0.102982
22 *42:17 *108:13 0.000798039
23 *42:21 *114:9 0.00112416
24 *897:io_in[12] *897:io_in[13] 0
25 *33:25 *42:21 0.00473073
26 *34:25 *42:21 0.00499402
27 *35:25 *42:21 0.000151052
28 *36:21 *42:21 0.000101995
29 *37:21 *42:21 0
30 *40:37 *42:21 0
*RES
1 io_in[20] *42:11 14.5069 
2 *42:11 *42:13 2543.99 
3 *42:13 *42:15 0.5 
4 *42:15 *42:17 159.456 
5 *42:17 *42:19 0.5 
6 *42:19 *42:21 79.155 
7 *42:21 *897:io_in[13] 1.1308 
*END

*D_NET *43 0.489481
*CONN
*P io_in[21] I
*I *897:io_in[14] I *D soc_sys
*CAP
1 io_in[21] 0.00191975
2 *897:io_in[14] 0.000820776
3 *43:37 0.0021497
4 *43:35 0.00132892
5 *43:33 0.00822772
6 *43:31 0.00839229
7 *43:25 0.00757754
8 *43:23 0.00749315
9 *43:13 0.156998
10 *43:11 0.158837
11 *897:io_in[14] *897:io_in[15] 0
12 *43:11 *75:34 0.0114977
13 *43:11 *80:26 0.0114977
14 *43:13 *551:21 0
15 *43:13 *584:21 0.0044926
16 *43:23 *649:25 0.000318344
17 *43:23 *650:45 0.000325612
18 *43:25 *109:21 0.0237805
19 *43:25 *646:22 0.000689918
20 *43:25 *650:45 0.00517153
21 *43:33 *44:25 0.0104609
22 *43:33 *109:21 0.00061438
23 *43:33 *113:13 4.75184e-05
24 *43:33 *114:27 0.00365623
25 *43:33 *540:19 0.0010735
26 *43:33 *541:27 0.0226983
27 *43:33 *575:21 0.00314711
28 *43:33 *640:17 0.00661875
29 *43:33 *651:41 0.0123331
30 *43:37 io_out[37] 0.000554397
31 *43:37 *897:io_in[30] 0.000883086
32 *43:37 *109:9 0.000347987
33 *43:37 *113:9 0.00817716
34 *897:io_in[13] *897:io_in[14] 0
35 *39:41 *43:37 0.00734991
36 *40:25 *43:25 0
*RES
1 io_in[21] *43:11 20.1735 
2 *43:11 *43:13 430.705 
3 *43:13 *43:23 3.9625 
4 *43:23 *43:25 215.385 
5 *43:25 *43:31 4.7725 
6 *43:31 *43:33 53.6433 
7 *43:33 *43:35 0.5 
8 *43:35 *43:37 91.395 
9 *43:37 *897:io_in[14] 2.12133 
*END

*D_NET *44 0.472395
*CONN
*P io_in[22] I
*I *897:io_in[15] I *D soc_sys
*CAP
1 io_in[22] 0.000219911
2 *897:io_in[15] 0.000628975
3 *44:29 0.00320287
4 *44:27 0.0025739
5 *44:25 0.00937629
6 *44:23 0.00937629
7 *44:21 0.0458095
8 *44:19 0.0460327
9 *44:13 0.0953334
10 *44:11 0.0953301
11 *897:io_in[15] *897:io_in[16] 0
12 *44:11 *75:34 0.000640656
13 *44:11 *80:26 0.000640656
14 *44:13 *894:finetune 0.000190749
15 *44:13 *894:trimTC[1] 0
16 *44:19 *69:21 0.000198443
17 *44:19 *774:22 0
18 *44:21 *894:trimTC[1] 0.0189451
19 *44:21 *545:15 0
20 *44:21 *578:21 0
21 *44:21 *748:17 0.0576968
22 *44:25 *65:21 0.0419485
23 *44:25 *113:13 7.40426e-06
24 *44:25 *575:21 0.00314972
25 *44:25 *651:41 0.0196217
26 *44:29 *74:31 0.00098798
27 *44:29 *107:17 2.40271e-05
28 *44:29 *108:9 0.00783784
29 *44:29 *109:9 0
30 *44:29 *112:21 0.000118514
31 *44:29 *118:19 0
32 *44:29 *143:19 0.00204191
33 *897:io_in[14] *897:io_in[15] 0
34 *38:21 *44:29 0
35 *39:41 *44:29 0
36 *43:33 *44:25 0.0104609
*RES
1 io_in[22] *44:11 4.03363 
2 *44:11 *44:13 259.041 
3 *44:13 *44:19 1.7372 
4 *44:19 *44:21 172.305 
5 *44:21 *44:23 0.5 
6 *44:23 *44:25 64.3935 
7 *44:25 *44:27 0.5 
8 *44:27 *44:29 95.475 
9 *44:29 *897:io_in[15] 1.71347 
*END

*D_NET *45 0.343972
*CONN
*P io_in[23] I
*I *897:io_in[16] I *D soc_sys
*CAP
1 io_in[23] 0.00695113
2 *897:io_in[16] 0.000621266
3 *45:49 0.0029536
4 *45:47 0.00330968
5 *45:33 0.00293994
6 *45:31 0.00315942
7 *45:21 0.119813
8 *45:19 0.122127
9 *45:15 0.0104615
10 *897:io_in[16] *897:io_in[17] 0
11 *45:21 *46:35 0
12 *45:21 *87:25 0
13 *45:21 *88:6 0.0027691
14 *45:21 *89:27 0.0205729
15 *45:21 *123:17 0.00914893
16 *45:31 *46:35 0.00135347
17 *45:31 *76:57 0.000330507
18 *45:31 *87:25 0.000145679
19 *45:31 *91:11 0.000571041
20 *45:33 *46:35 0.00188958
21 *45:33 *46:43 0.00630507
22 *45:33 *50:19 0.000949491
23 *45:33 *76:51 0.000692106
24 *45:33 *82:9 0.00180003
25 *45:33 *91:11 0.000353922
26 *45:33 *93:17 0.00043321
27 *45:47 *53:31 0.00229176
28 *45:47 *57:19 0.00229102
29 *45:47 *76:51 1.88261e-05
30 *45:47 *131:7 0.000124967
31 *45:47 *132:7 0.000124967
32 *45:49 io_oeb[36] 0.000623376
33 *45:49 *897:io_in[28] 0.00120506
34 *45:49 *49:19 0
35 *45:49 *74:23 0.00510465
36 *45:49 *74:31 0.000952677
37 *45:49 *98:17 0.000313315
38 *45:49 *103:15 0.00241498
39 *45:49 *108:9 0.00517814
40 *45:49 *143:19 0.00367709
41 *897:io_in[15] *897:io_in[16] 0
*RES
1 io_in[23] *45:15 44.0791 
2 *45:15 *45:19 9.51107 
3 *45:19 *45:21 2158.43 
4 *45:21 *45:31 29.8241 
5 *45:31 *45:33 92.7 
6 *45:33 *45:47 29.6915 
7 *45:47 *45:49 124.035 
8 *45:49 *897:io_in[16] 1.71347 
*END

*D_NET *46 0.39897
*CONN
*P io_in[24] I
*I *897:io_in[17] I *D soc_sys
*CAP
1 io_in[24] 0.0108775
2 *897:io_in[17] 0.00111644
3 *46:51 0.00329284
4 *46:49 0.00306705
5 *46:43 0.00484661
6 *46:41 0.0040063
7 *46:35 0.0456419
8 *46:33 0.0458024
9 *46:27 0.00908003
10 *46:25 0.00915651
11 *46:19 0.00878195
12 *46:17 0.00872085
13 *46:11 0.0111038
14 *897:io_in[17] io_oeb[36] 0.000283551
15 *897:io_in[17] *897:io_in[18] 0
16 *897:io_in[17] *897:io_in[22] 9.37004e-05
17 *897:io_in[17] *74:31 0.0011405
18 *897:io_in[17] *143:19 0.0011428
19 *46:11 *47:17 0.00505284
20 *46:11 *122:25 0.0221165
21 *46:19 *83:19 0
22 *46:19 *122:17 0
23 *46:25 *47:17 6.13317e-05
24 *46:27 *83:19 0.0206851
25 *46:35 *50:19 0.048828
26 *46:35 *82:9 0.00445045
27 *46:35 *83:19 0
28 *46:35 *87:25 0.0757954
29 *46:35 *87:33 0.00488159
30 *46:35 *91:11 0.000780609
31 *46:35 *127:17 0.0221789
32 *46:41 io_oeb[34] 3.57472e-05
33 *46:41 *94:15 3.57472e-05
34 *46:43 *50:19 0
35 *46:43 *76:51 5.10739e-05
36 *46:43 *88:6 0.000111241
37 *46:43 *89:17 0.000478975
38 *46:43 *93:17 0.000230341
39 *46:43 *129:45 0.000451823
40 *46:43 *133:15 0.000480774
41 *46:49 *127:7 0.000200161
42 *46:49 *129:45 7.51501e-05
43 *46:49 *130:7 0
44 *46:51 *51:25 0.00867621
45 *46:51 *103:23 0.00547828
46 *46:51 *110:9 0.000131515
47 *897:io_in[16] *897:io_in[17] 0
48 *45:21 *46:35 0
49 *45:31 *46:35 0.00135347
50 *45:33 *46:35 0.00188958
51 *45:33 *46:43 0.00630507
*RES
1 io_in[24] *46:11 41.2594 
2 *46:11 *46:17 1.53327 
3 *46:17 *46:19 154.635 
4 *46:19 *46:25 1.62067 
5 *46:25 *46:27 238.785 
6 *46:27 *46:33 1.44587 
7 *46:33 *46:35 1480.64 
8 *46:35 *46:41 1.15453 
9 *46:41 *46:43 106.695 
10 *46:43 *46:49 2.786 
11 *46:49 *46:51 99.555 
12 *46:51 *897:io_in[17] 16.3057 
*END

*D_NET *47 0.347921
*CONN
*P io_in[25] I
*I *897:io_in[18] I *D soc_sys
*CAP
1 io_in[25] 0.0111126
2 *897:io_in[18] 0.000467807
3 *47:41 0.00519114
4 *47:39 0.0117687
5 *47:19 0.0599414
6 *47:17 0.0640086
7 *897:io_in[18] *897:io_in[19] 0
8 *47:17 *48:11 0.0048836
9 *47:17 *85:30 0.00515748
10 *47:17 *122:25 0.000177107
11 *47:19 io_oeb[27] 0.00134925
12 *47:19 *48:27 0.0406374
13 *47:19 *49:17 0.00192307
14 *47:19 *49:19 0
15 *47:19 *50:11 0.00797758
16 *47:19 *53:21 0.00398361
17 *47:19 *54:17 0.00403636
18 *47:19 *55:11 0.00188006
19 *47:19 *57:17 0.001123
20 *47:19 *83:19 0
21 *47:19 *84:26 0.0841856
22 *47:19 *85:22 8.90579e-05
23 *47:19 *93:27 0.00892573
24 *47:19 *122:17 0
25 *47:19 *123:9 2.95526e-05
26 *47:19 *124:9 0
27 *47:39 *76:51 4.93858e-05
28 *47:39 *76:57 0
29 *47:39 *78:7 0.000119443
30 *47:39 *80:20 5.53706e-05
31 *47:39 *81:12 0.000314762
32 *47:39 *82:15 0.000144197
33 *47:39 *84:24 0.000100498
34 *47:39 *85:20 0.000852412
35 *47:39 *88:6 0
36 *47:39 *123:15 0.00115377
37 *47:39 *131:23 5.20787e-06
38 *47:41 *49:19 0.014443
39 *47:41 *57:19 0
40 *47:41 *73:17 0.000199914
41 *47:41 *74:31 0.000314309
42 *47:41 *107:9 0.00423353
43 *47:41 *114:9 0.000722745
44 *47:41 *122:15 0.0012491
45 *897:io_in[17] *897:io_in[18] 0
46 *46:11 *47:17 0.00505284
47 *46:25 *47:17 6.13317e-05
*RES
1 io_in[25] *47:17 44.4223 
2 *47:17 *47:19 1666.28 
3 *47:19 *47:39 21.7448 
4 *47:39 *47:41 173.505 
5 *47:41 *897:io_in[18] 1.42213 
*END

*D_NET *48 0.356423
*CONN
*P io_in[26] I
*I *897:io_in[19] I *D soc_sys
*CAP
1 io_in[26] 0.0002367
2 *897:io_in[19] 0.00100515
3 *48:43 0.00329653
4 *48:41 0.00247659
5 *48:35 0.00178418
6 *48:33 0.00190301
7 *48:27 0.00937361
8 *48:25 0.00922604
9 *48:19 0.00829376
10 *48:17 0.00825479
11 *48:11 0.0366472
12 *48:9 0.0367664
13 *897:io_in[19] *897:io_in[20] 0
14 *897:io_in[19] *897:io_in[22] 8.6905e-05
15 *897:io_in[19] *107:9 0.00102064
16 *897:io_in[19] *114:9 0.00101953
17 *48:9 *122:23 0
18 *48:11 io_oeb[27] 0
19 *48:11 *49:17 0.00110856
20 *48:11 *50:11 0.00465889
21 *48:11 *53:21 0.00155106
22 *48:11 *54:17 0.000580849
23 *48:11 *84:26 0.00303615
24 *48:11 *85:30 0.0953624
25 *48:11 *130:17 0.000241421
26 *48:17 io_out[31] 1.57237e-05
27 *48:19 *84:26 0.00238158
28 *48:19 *85:22 0.016752
29 *48:19 *122:17 0
30 *48:19 *130:17 0.00534045
31 *48:27 *49:19 0.0173433
32 *48:27 *55:11 0.00679046
33 *48:27 *57:17 0.00385036
34 *48:27 *76:55 0.00350557
35 *48:27 *78:9 0.00262831
36 *48:27 *123:9 0.000256663
37 *48:33 *78:9 0.000411929
38 *48:33 *83:17 0.000641948
39 *48:33 *123:9 0.000207402
40 *48:35 *49:19 0.00145848
41 *48:35 *57:17 0.000312768
42 *48:35 *78:9 0.00153378
43 *48:35 *83:17 0.00130641
44 *48:35 *87:15 0.000834242
45 *48:35 *103:15 5.33602e-05
46 *48:35 *123:9 0.000393978
47 *48:35 *133:23 0.00217116
48 *48:41 *133:15 9.974e-05
49 *48:41 *136:7 9.09637e-05
50 *48:43 io_out[37] 0.000132553
51 *48:43 *897:io_in[26] 0.00212644
52 *48:43 *98:17 0.00163792
53 *48:43 *109:9 0.00207406
54 *48:43 *113:9 0.00192904
55 *48:43 *116:21 0.000129951
56 *48:43 *121:9 0.00095125
57 *48:43 *124:9 0.000787492
58 *48:43 *127:9 0.00225702
59 *48:43 *130:9 0.00172178
60 *48:43 *136:9 0.000843989
61 *897:io_in[18] *897:io_in[19] 0
62 *47:17 *48:11 0.0048836
63 *47:19 *48:27 0.0406374
*RES
1 io_in[26] *48:9 0.962333 
2 *48:9 *48:11 174.027 
3 *48:11 *48:17 1.24193 
4 *48:17 *48:19 233.175 
5 *48:19 *48:25 1.32933 
6 *48:25 *48:27 501.435 
7 *48:27 *48:33 12.225 
8 *48:33 *48:35 78.135 
9 *48:35 *48:41 1.44587 
10 *48:41 *48:43 117.915 
11 *48:43 *897:io_in[19] 14.9361 
*END

*D_NET *49 0.230191
*CONN
*P io_in[27] I
*I *897:io_in[20] I *D soc_sys
*CAP
1 io_in[27] 0.0065838
2 *897:io_in[20] 0.000521348
3 *49:19 0.0782643
4 *49:17 0.0843268
5 *897:io_in[20] *897:io_in[21] 0
6 *49:17 io_oeb[27] 0
7 *49:17 *84:26 0.00200893
8 *49:17 *124:17 0.000234659
9 *49:19 *73:17 0.00246362
10 *49:19 *74:31 0.00484723
11 *49:19 *78:9 0.00905111
12 *49:19 *83:19 0
13 *49:19 *86:15 0.00064245
14 *49:19 *98:15 0.00180124
15 *49:19 *103:15 0.00316896
16 *897:io_in[19] *897:io_in[20] 0
17 *45:49 *49:19 0
18 *47:19 *49:17 0.00192307
19 *47:19 *49:19 0
20 *47:41 *49:19 0.014443
21 *48:11 *49:17 0.00110856
22 *48:27 *49:19 0.0173433
23 *48:35 *49:19 0.00145848
*RES
1 io_in[27] *49:17 18.7292 
2 *49:17 *49:19 1690.24 
3 *49:19 *897:io_in[20] 1.4804 
*END

*D_NET *50 0.285252
*CONN
*P io_in[28] I
*I *897:io_in[21] I *D soc_sys
*CAP
1 io_in[28] 0.00055075
2 *897:io_in[21] 0.000179969
3 *50:19 0.0312693
4 *50:17 0.0315117
5 *50:11 0.0246572
6 *50:9 0.0247857
7 *897:io_in[21] *897:io_in[22] 0
8 *50:9 *124:17 0.000234659
9 *50:11 *53:21 6.09935e-05
10 *50:11 *84:26 0.0083009
11 *50:17 *53:21 9.60616e-05
12 *50:19 *53:23 0
13 *50:19 *53:31 0.000103158
14 *50:19 *54:19 0.0685996
15 *50:19 *76:51 0.00103719
16 *50:19 *82:9 0.00757778
17 *50:19 *83:19 0
18 *50:19 *91:11 0.000522881
19 *50:19 *111:21 0.000673572
20 *50:19 *112:15 0.001119
21 *50:19 *114:9 0
22 *50:19 *118:11 0
23 *50:19 *127:17 0.0199552
24 *50:19 *129:45 0.00117823
25 *50:19 *133:15 0.000424615
26 *897:io_in[20] *897:io_in[21] 0
27 *45:33 *50:19 0.000949491
28 *46:35 *50:19 0.048828
29 *46:43 *50:19 0
30 *47:19 *50:11 0.00797758
31 *48:11 *50:11 0.00465889
*RES
1 io_in[28] *50:9 1.60073 
2 *50:9 *50:11 65.7577 
3 *50:11 *50:17 1.8246 
4 *50:17 *50:19 1196.06 
5 *50:19 *897:io_in[21] 0.897733 
*END

*D_NET *51 0.203513
*CONN
*P io_in[29] I
*I *897:io_in[22] I *D soc_sys
*CAP
1 io_in[29] 0.0029565
2 *897:io_in[22] 0.000870891
3 *51:25 0.00384959
4 *51:23 0.00588465
5 *51:11 0.0770624
6 *51:9 0.0771129
7 *897:io_in[22] *897:io_in[23] 0
8 *51:11 *897:wb_rst_i 0.0001385
9 *51:11 *76:51 0.00108128
10 *51:11 *80:20 0
11 *51:11 *131:25 0
12 *51:23 *85:20 0.000548953
13 *51:23 *87:15 0
14 *51:23 *98:15 0
15 *51:23 *121:23 0.000969019
16 *51:23 *131:23 9.2797e-06
17 *51:25 io_out[34] 0.000558588
18 *51:25 io_out[35] 0.000916331
19 *51:25 io_out[37] 0.000359245
20 *51:25 *897:io_in[26] 0.000513547
21 *51:25 *110:9 0.00409011
22 *51:25 *122:17 0.00646229
23 *51:25 *131:9 0.00759974
24 *51:25 *136:9 0.0036724
25 *897:io_in[17] *897:io_in[22] 9.37004e-05
26 *897:io_in[19] *897:io_in[22] 8.6905e-05
27 *897:io_in[21] *897:io_in[22] 0
28 *46:51 *51:25 0.00867621
*RES
1 io_in[29] *51:9 7.5186 
2 *51:9 *51:11 202.537 
3 *51:11 *51:23 3.23408 
4 *51:23 *51:25 189.315 
5 *51:25 *897:io_in[22] 2.3544 
*END

*D_NET *53 0.206846
*CONN
*P io_in[30] I
*I *897:io_in[23] I *D soc_sys
*CAP
1 io_in[30] 0.0136587
2 *897:io_in[23] 0.000278143
3 *53:31 0.00424171
4 *53:29 0.00405296
5 *53:23 0.0264442
6 *53:21 0.0400135
7 *897:io_in[23] *897:io_in[24] 0
8 *53:21 *84:26 0.00277872
9 *53:23 *54:19 0
10 *53:23 *55:19 0.00487708
11 *53:23 *72:9 0.00651098
12 *53:23 *73:17 0.000342163
13 *53:23 *83:19 0.068856
14 *53:29 *92:7 1.21359e-05
15 *53:31 *54:19 0.000151052
16 *53:31 *55:19 0.0163265
17 *53:31 *57:19 0.00481533
18 *53:31 *72:9 0.00498364
19 *53:31 *114:9 0.000416759
20 *897:io_in[22] *897:io_in[23] 0
21 *45:47 *53:31 0.00229176
22 *47:19 *53:21 0.00398361
23 *48:11 *53:21 0.00155106
24 *50:11 *53:21 6.09935e-05
25 *50:17 *53:21 9.60616e-05
26 *50:19 *53:23 0
27 *50:19 *53:31 0.000103158
*RES
1 io_in[30] *53:21 35.7811 
2 *53:21 *53:23 802.335 
3 *53:23 *53:29 1.15453 
4 *53:29 *53:31 195.435 
5 *53:31 *897:io_in[23] 1.07253 
*END

*D_NET *54 0.18214
*CONN
*P io_in[31] I
*I *897:io_in[24] I *D soc_sys
*CAP
1 io_in[31] 0.0117368
2 *897:io_in[24] 0.000217591
3 *54:19 0.0217509
4 *54:17 0.0332702
5 *897:io_in[24] *897:io_in[25] 0
6 *54:17 *55:9 4.95138e-05
7 *54:17 *55:11 9.70509e-05
8 *54:17 *84:26 0.00105855
9 *54:17 *130:17 0.00543241
10 *54:19 *55:19 0.0351591
11 *897:io_in[23] *897:io_in[24] 0
12 *47:19 *54:17 0.00403636
13 *48:11 *54:17 0.000580849
14 *50:19 *54:19 0.0685996
15 *53:23 *54:19 0
16 *53:31 *54:19 0.000151052
*RES
1 io_in[31] *54:17 36.5664 
2 *54:17 *54:19 793.155 
3 *54:19 *897:io_in[24] 0.956 
*END

*D_NET *55 0.151905
*CONN
*P io_in[32] I
*I *897:io_in[25] I *D soc_sys
*CAP
1 io_in[32] 0.000618632
2 *897:io_in[25] 0.000249956
3 *55:19 0.00854805
4 *55:17 0.0086363
5 *55:11 0.0240244
6 *55:9 0.0243048
7 *897:io_in[25] *897:io_in[26] 0
8 *55:9 *124:17 0.000234659
9 *55:11 *93:27 0.015283
10 *55:11 *130:17 0.00116041
11 *55:19 *72:9 0.00366541
12 *897:io_in[24] *897:io_in[25] 0
13 *47:19 *55:11 0.00188006
14 *48:27 *55:11 0.00679046
15 *53:23 *55:19 0.00487708
16 *53:31 *55:19 0.0163265
17 *54:17 *55:9 4.95138e-05
18 *54:17 *55:11 9.70509e-05
19 *54:19 *55:19 0.0351591
*RES
1 io_in[32] *55:9 1.71727 
2 *55:9 *55:11 64.8964 
3 *55:11 *55:17 1.59153 
4 *55:17 *55:19 407.085 
5 *55:19 *897:io_in[25] 1.01427 
*END

*D_NET *56 0.111714
*CONN
*P io_in[33] I
*I *897:io_in[26] I *D soc_sys
*CAP
1 io_in[33] 0.00582019
2 *897:io_in[26] 0.0103622
3 *56:15 0.0398473
4 *56:13 0.0353053
5 *897:io_in[26] io_out[36] 0.00136518
6 *897:io_in[26] *897:io_in[27] 0
7 *897:io_in[26] *897:io_in[29] 0.00367064
8 *897:io_in[26] *897:io_in[30] 0.000109931
9 *897:io_in[26] *110:9 0.00041352
10 *897:io_in[26] *113:9 0.00189425
11 *897:io_in[26] *116:21 0.00219321
12 *897:io_in[26] *125:32 0.00206494
13 *897:io_in[26] *136:9 0.000578338
14 *56:15 *126:20 0
15 *56:15 *542:28 9.88725e-06
16 *56:15 *576:13 0.0054393
17 *897:io_in[25] *897:io_in[26] 0
18 *48:43 *897:io_in[26] 0.00212644
19 *51:25 *897:io_in[26] 0.000513547
*RES
1 io_in[33] *56:13 14.6727 
2 *56:13 *56:15 84.7071 
3 *56:15 *897:io_in[26] 33.4526 
*END

*D_NET *57 0.0760974
*CONN
*P io_in[34] I
*I *897:io_in[27] I *D soc_sys
*CAP
1 io_in[34] 0.0129948
2 *897:io_in[27] 0.000340378
3 *57:19 0.00477928
4 *57:17 0.0174337
5 *897:io_in[27] *142:16 5.99146e-05
6 *57:17 io_oeb[34] 0.000179334
7 *57:17 io_oeb[36] 0.002176
8 *57:17 *897:io_in[28] 1.13137e-05
9 *57:17 *76:55 0.000739638
10 *57:17 *83:17 0.000463573
11 *57:17 *87:15 0.000118136
12 *57:17 *93:27 0.00894045
13 *57:17 *132:17 0.00519856
14 *57:19 *72:9 0.00265381
15 *57:19 *73:17 0.000700398
16 *57:19 *114:9 0.0037014
17 *57:19 *122:15 0.0032142
18 *897:io_in[26] *897:io_in[27] 0
19 *45:47 *57:19 0.00229102
20 *47:19 *57:17 0.001123
21 *47:41 *57:19 0
22 *48:27 *57:17 0.00385036
23 *48:35 *57:17 0.000312768
24 *53:31 *57:19 0.00481533
*RES
1 io_in[34] *57:17 43.4824 
2 *57:17 *57:19 156.165 
3 *57:19 *897:io_in[27] 1.18907 
*END

*D_NET *58 0.0437851
*CONN
*P io_in[35] I
*I *897:io_in[28] I *D soc_sys
*CAP
1 io_in[35] 0.00925988
2 *897:io_in[28] 0.00925988
3 *897:io_in[28] io_oeb[36] 0.0118035
4 *897:io_in[28] io_out[34] 0.00248884
5 *897:io_in[28] io_out[36] 0.00473269
6 *897:io_in[28] *897:io_in[29] 1.51394e-05
7 *897:io_in[28] *897:io_in[30] 3.42651e-05
8 *897:io_in[28] *73:15 0.00123516
9 *897:io_in[28] *74:23 0.000771275
10 *897:io_in[28] *83:17 1.19825e-05
11 *897:io_in[28] *98:17 0.00122404
12 *897:io_in[28] *108:9 0.000306412
13 *897:io_in[28] *123:9 0.000344519
14 *897:io_in[28] *133:23 0.000957026
15 *897:io_in[28] *142:16 0.000124156
16 *45:49 *897:io_in[28] 0.00120506
17 *57:17 *897:io_in[28] 1.13137e-05
*RES
1 io_in[35] *897:io_in[28] 37.6896 
*END

*D_NET *59 0.0105203
*CONN
*P io_in[36] I
*I *897:io_in[29] I *D soc_sys
*CAP
1 io_in[36] 0.0028292
2 *897:io_in[29] 0.0028292
3 *897:io_in[29] io_out[36] 0.000514295
4 *897:io_in[29] *897:io_in[30] 0.000297754
5 *897:io_in[29] *112:15 0.000326061
6 *897:io_in[29] *143:17 3.79971e-05
7 *897:io_in[26] *897:io_in[29] 0.00367064
8 *897:io_in[28] *897:io_in[29] 1.51394e-05
*RES
1 io_in[36] *897:io_in[29] 11.1435 
*END

*D_NET *60 0.0270271
*CONN
*P io_in[37] I
*I *897:io_in[30] I *D soc_sys
*CAP
1 io_in[37] 0.00622756
2 *897:io_in[30] 0.00622756
3 *897:io_in[30] io_oeb[36] 8.31947e-05
4 *897:io_in[30] io_out[36] 1.48556e-05
5 *897:io_in[30] io_out[37] 0.0093362
6 *897:io_in[30] *897:io_in[0] 0
7 *897:io_in[30] *109:9 0.000817435
8 *897:io_in[30] *112:15 1.85126e-05
9 *897:io_in[30] *112:21 0.000231218
10 *897:io_in[30] *113:9 0.00116164
11 *897:io_in[30] *114:17 0.000496578
12 *897:io_in[30] *118:19 0.000139918
13 *897:io_in[30] *143:17 0.000209586
14 *897:io_in[26] *897:io_in[30] 0.000109931
15 *897:io_in[28] *897:io_in[30] 3.42651e-05
16 *897:io_in[29] *897:io_in[30] 0.000297754
17 *39:41 *897:io_in[30] 0.000737825
18 *43:37 *897:io_in[30] 0.000883086
*RES
1 io_in[37] *897:io_in[30] 20.2913 
*END

*D_NET *65 0.743098
*CONN
*P io_in[7] I
*I *897:io_in[0] I *D soc_sys
*CAP
1 io_in[7] 0.000223909
2 *897:io_in[0] 0.00428628
3 *65:21 0.0263952
4 *65:19 0.0221236
5 *65:13 0.0260328
6 *65:11 0.0260181
7 *65:9 0.0354303
8 *65:7 0.0356542
9 *897:io_in[0] io_out[37] 0
10 *897:io_in[0] *74:41 0
11 *897:io_in[0] *107:17 0.000791604
12 *897:io_in[0] *108:9 0.000850688
13 *897:io_in[0] *109:9 0.000451303
14 *897:io_in[0] *112:21 0.000736667
15 *897:io_in[0] *118:19 0.000451303
16 *65:9 *66:9 0.0408724
17 *65:9 *69:25 0.000306412
18 *65:9 *141:25 0.0928203
19 *65:13 *898:wbs_adr_i[22] 0.000799576
20 *65:13 *898:wbs_dat_i[27] 0.000479344
21 *65:13 *113:21 0.0908718
22 *65:13 *142:26 0.133471
23 *65:13 *847:11 0.00239137
24 *65:19 *844:17 9.58678e-06
25 *65:21 *898:wbs_adr_i[6] 0.000545253
26 *65:21 *113:13 0.00025038
27 *65:21 *142:18 0.103787
28 *65:21 *651:41 0.00961364
29 *65:21 *657:25 0.0442763
30 *65:21 *794:19 0.000290608
31 *897:io_in[30] *897:io_in[0] 0
32 *24:9 *65:9 0.000918252
33 *44:25 *65:21 0.0419485
*RES
1 io_in[7] *65:7 0.839467 
2 *65:7 *65:9 1037.83 
3 *65:9 *65:11 2 
4 *65:11 *65:13 1228.99 
5 *65:13 *65:19 2.7325 
6 *65:19 *65:21 160.883 
7 *65:21 *897:io_in[0] 10.6634 
*END

*D_NET *66 0.760845
*CONN
*P io_in[8] I
*I *897:io_in[1] I *D soc_sys
*CAP
1 io_in[8] 8.93967e-05
2 *897:io_in[1] 0.004036
3 *66:13 0.112671
4 *66:11 0.108635
5 *66:9 0.0548075
6 *66:7 0.0548969
7 *897:io_in[1] *897:io_in[2] 0.00090949
8 *897:io_in[1] *104:18 0.000874066
9 *897:io_in[1] *141:11 0.00210776
10 *897:io_in[1] *143:37 1.44646e-05
11 *897:io_in[1] *542:38 0.000110459
12 *897:io_in[1] *575:11 0.000220919
13 *66:9 *69:25 1.73493e-05
14 *66:9 *70:22 0.0772615
15 *66:9 *71:33 0.0198511
16 *66:9 *72:17 0.0195188
17 *66:9 *73:25 0.000351815
18 *66:9 *108:17 0.0174557
19 *66:9 *141:25 0.0221832
20 *66:9 *142:30 0.0211131
21 *66:13 *898:wbs_we_i 0.0148279
22 *66:13 *557:11 7.67864e-06
23 *66:13 *570:13 0.00308488
24 *66:13 *574:17 0
25 *66:13 *581:17 0.0259002
26 *66:13 *582:13 0.00807591
27 *66:13 *585:19 0.00652598
28 *66:13 *594:15 0.00906069
29 *66:13 *609:16 0.00224843
30 *66:13 *626:14 0.0103316
31 *66:13 *629:14 0.00296809
32 *66:13 *872:15 0.00795105
33 *26:9 *66:9 0.00023629
34 *31:21 *66:13 0.0916595
35 *33:21 *66:13 0
36 *35:23 *66:13 0.019969
37 *65:9 *66:9 0.0408724
*RES
1 io_in[8] *66:7 0.635533 
2 *66:7 *66:9 212.357 
3 *66:9 *66:11 0.5 
4 *66:11 *66:13 367.351 
5 *66:13 *897:io_in[1] 13.3551 
*END

*D_NET *67 0.566802
*CONN
*P io_in[9] I
*I *897:io_in[2] I *D soc_sys
*CAP
1 io_in[9] 0.004895
2 *897:io_in[2] 0.00199719
3 *67:261 0.0245136
4 *67:259 0.0225164
5 *67:257 0.00232353
6 *67:255 0.00305597
7 *67:249 0.00454993
8 *67:247 0.00516158
9 *67:239 0.0021469
10 *67:231 0.00452258
11 *67:217 0.00785582
12 *67:215 0.00903665
13 *67:193 0.00944299
14 *67:191 0.00736698
15 *67:185 0.00606689
16 *67:183 0.00324231
17 *67:181 0.0255641
18 *67:179 0.0276143
19 *67:175 0.0069751
20 *67:161 0.00877243
21 *67:159 0.0075566
22 *67:151 0.00753468
23 *67:135 0.014853
24 *67:123 0.0150579
25 *67:111 0.00737235
26 *67:103 0.00439238
27 *67:97 0.0124056
28 *67:95 0.0158689
29 *67:81 0.00749163
30 *67:79 0.00498311
31 *67:73 0.00495525
32 *67:71 0.00552291
33 *67:57 0.00810052
34 *67:55 0.0174884
35 *67:43 0.0140456
36 *67:39 0.00551699
37 *67:27 0.00890498
38 *67:15 0.0103677
39 *897:io_in[2] *104:18 0.00249178
40 *67:97 io_out[16] 0
41 *67:215 *72:13 0
42 *67:215 *73:21 0.000272957
43 *67:215 *76:57 0.00382702
44 *67:215 *737:15 0.000438533
45 *67:215 *738:15 0
46 *67:217 *690:9 0.00260516
47 *67:217 *713:9 0
48 *67:217 *780:9 0.0010249
49 *67:217 *807:9 0.00280094
50 *67:231 *897:sram_dat_i[15] 0.00526386
51 *67:231 *897:sram_dat_i[6] 0.000626864
52 *67:231 *748:9 0.00109317
53 *67:231 *763:9 0
54 *67:231 *796:7 0.00105433
55 *67:231 *819:9 0.00040503
56 *67:231 *865:7 0.00211023
57 *67:231 *887:7 0.000630446
58 *67:239 *104:26 0.00188706
59 *67:239 *676:9 0.000654352
60 *67:239 *712:9 0.000477909
61 *67:247 *118:67 0.000752396
62 *67:247 *700:11 0.00189898
63 *67:247 *741:19 0.000443425
64 *67:247 *776:13 0.00142452
65 *67:249 *733:9 0
66 *67:249 *763:9 0
67 *67:249 *819:9 0.00853764
68 *67:255 *665:7 0.000200402
69 *67:257 *74:77 0.00123802
70 *67:257 *648:37 0.00599284
71 *67:261 *897:adc_data[4] 0.00463639
72 *67:261 *104:22 0.101431
73 *67:261 *107:21 0.0421203
74 *67:261 *118:43 0.00168047
75 *897:io_in[1] *897:io_in[2] 0.00090949
76 *12:5 *67:71 0
77 *20:29 *67:181 0
78 *22:5 *67:27 0
79 *26:13 *67:95 0.00021181
80 *37:5 *67:73 0.00762118
*RES
1 io_in[9] *67:15 33.6725 
2 *67:15 *67:27 49.8019 
3 *67:27 *67:39 23.0551 
4 *67:39 *67:43 36.815 
5 *67:43 *67:55 40.723 
6 *67:55 *67:57 100.575 
7 *67:57 *67:71 27.097 
8 *67:71 *67:73 85.275 
9 *67:73 *67:79 6.282 
10 *67:79 *67:81 54.165 
11 *67:81 *67:95 49.245 
12 *67:95 *67:97 206.655 
13 *67:97 *67:103 3.66 
14 *67:103 *67:111 49.5779 
15 *67:111 *67:123 41.2929 
16 *67:123 *67:135 47.3543 
17 *67:135 *67:151 44.6147 
18 *67:151 *67:159 21.8611 
19 *67:159 *67:161 69.975 
20 *67:161 *67:175 31.029 
21 *67:175 *67:179 36.305 
22 *67:179 *67:181 64.714 
23 *67:181 *67:183 0.5 
24 *67:183 *67:185 57.225 
25 *67:185 *67:191 8.03 
26 *67:191 *67:193 80.685 
27 *67:193 *67:215 44.4703 
28 *67:215 *67:217 101.085 
29 *67:217 *67:231 39.1602 
30 *67:231 *67:239 29.4625 
31 *67:239 *67:247 49.735 
32 *67:247 *67:249 98.1525 
33 *67:249 *67:255 2.90253 
34 *67:255 *67:257 66.915 
35 *67:257 *67:259 0.5 
36 *67:259 *67:261 151.24 
37 *67:261 *897:io_in[2] 49.4757 
*END

*D_NET *69 0.713271
*CONN
*P io_oeb[10] O
*I *897:io_oeb[3] O *D soc_sys
*CAP
1 io_oeb[10] 0.000199298
2 *897:io_oeb[3] 0.0134469
3 *69:25 0.0288622
4 *69:23 0.0286629
5 *69:21 0.0887175
6 *69:19 0.0887175
7 *69:17 0.0279433
8 *69:15 0.0413901
9 *69:15 *70:16 6.66739e-05
10 *69:15 *71:23 0.00380528
11 *69:15 *74:21 0.000277668
12 *69:15 *75:28 0.00201806
13 *69:15 *76:51 6.70176e-05
14 *69:17 *634:18 0.00418849
15 *69:17 *771:17 0.0091683
16 *69:17 *772:27 0.000679197
17 *69:17 *772:31 0.0260888
18 *69:21 *71:29 0.212707
19 *69:21 *768:18 0.00304879
20 *69:21 *774:22 0
21 *69:25 *71:33 0.0659518
22 *69:25 *141:25 0.0014887
23 *24:9 *69:25 0.0290939
24 *25:17 *69:17 0.0361599
25 *44:19 *69:21 0.000198443
26 *65:9 *69:25 0.000306412
27 *66:9 *69:25 1.73493e-05
*RES
1 *897:io_oeb[3] *69:15 5.67953 
2 *69:15 *69:17 128.635 
3 *69:17 *69:19 0.5 
4 *69:19 *69:21 337.519 
5 *69:21 *69:23 0.5 
6 *69:23 *69:25 120.452 
7 *69:25 io_oeb[10] 0.8686 
*END

*D_NET *70 0.857514
*CONN
*P io_oeb[11] O
*I *897:io_oeb[4] O *D soc_sys
*CAP
1 io_oeb[11] 0.000159539
2 *897:io_oeb[4] 0.0218361
3 *70:22 0.0641273
4 *70:20 0.0639677
5 *70:18 0.0397208
6 *70:16 0.0615569
7 *70:16 *74:21 3.01345e-06
8 *70:16 *76:51 0.00221374
9 *70:16 *105:27 0.00292353
10 *70:16 *569:19 0
11 *70:16 *602:15 0.00661404
12 *70:16 *779:17 0
13 *70:18 *105:29 0.224862
14 *70:18 *111:27 3.26352e-05
15 *70:18 *528:15 0.169832
16 *70:18 *754:13 0.0263735
17 *70:22 *71:33 0.0372657
18 *70:22 *72:17 0.0132713
19 *70:22 *73:25 0.0317206
20 *70:22 *108:17 0.0137056
21 *66:9 *70:22 0.0772615
22 *69:15 *70:16 6.66739e-05
*RES
1 *897:io_oeb[4] *70:16 30.424 
2 *70:16 *70:18 334.955 
3 *70:18 *70:20 0.5 
4 *70:20 *70:22 258.696 
5 *70:22 io_oeb[11] 0.9142 
*END

*D_NET *71 0.812115
*CONN
*P io_oeb[12] O
*I *897:io_oeb[5] O *D soc_sys
*CAP
1 io_oeb[12] 0.000118031
2 *897:io_oeb[5] 0.0179928
3 *71:33 0.0360489
4 *71:31 0.0359309
5 *71:29 0.0706438
6 *71:27 0.0706438
7 *71:25 0.0469974
8 *71:23 0.0649902
9 *71:23 *72:7 0
10 *71:23 *74:21 0.00066375
11 *71:23 *75:28 0.0037057
12 *71:23 *76:51 4.52573e-05
13 *71:23 *77:15 0.0131154
14 *71:23 *645:13 0.000722078
15 *71:25 *80:22 0
16 *71:25 *604:15 0
17 *71:29 *768:18 0.0698327
18 *71:33 *72:17 0.00296714
19 *71:33 *142:30 0.0060697
20 *24:9 *71:33 0.00213909
21 *24:13 *71:29 0
22 *26:9 *71:33 0.029907
23 *66:9 *71:33 0.0198511
24 *69:15 *71:23 0.00380528
25 *69:21 *71:29 0.212707
26 *69:25 *71:33 0.0659518
27 *70:22 *71:33 0.0372657
*RES
1 *897:io_oeb[5] *71:23 9.44648 
2 *71:23 *71:25 125.707 
3 *71:25 *71:27 0.5 
4 *71:27 *71:29 325.166 
5 *71:29 *71:31 0.5 
6 *71:31 *71:33 187.723 
7 *71:33 io_oeb[12] 0.752067 
*END

*D_NET *72 0.791413
*CONN
*P io_oeb[13] O
*I *897:io_oeb[6] O *D soc_sys
*CAP
1 io_oeb[13] 2.41895e-05
2 *897:io_oeb[6] 0.000345416
3 *72:17 0.0311517
4 *72:15 0.0311275
5 *72:13 0.130308
6 *72:11 0.130308
7 *72:9 0.00283699
8 *72:7 0.0031824
9 *72:7 *73:15 0
10 *72:7 *76:51 4.91079e-05
11 *72:9 *73:17 0.000904477
12 *72:13 *698:17 0
13 *72:13 *703:19 1.79809e-05
14 *72:13 *705:25 0.00944898
15 *72:13 *727:15 0
16 *72:13 *743:13 0
17 *72:13 *769:13 0.000376454
18 *72:13 *770:21 0.000235826
19 *72:13 *779:13 0.0789204
20 *72:17 *73:25 0.17357
21 *72:17 *108:17 0.133517
22 *26:9 *72:17 0.0115167
23 *53:23 *72:9 0.00651098
24 *53:31 *72:9 0.00498364
25 *55:19 *72:9 0.00366541
26 *57:19 *72:9 0.00265381
27 *66:9 *72:17 0.0195188
28 *67:215 *72:13 0
29 *70:22 *72:17 0.0132713
30 *71:23 *72:7 0
31 *71:33 *72:17 0.00296714
*RES
1 *897:io_oeb[6] *72:7 1.1308 
2 *72:7 *72:9 133.215 
3 *72:9 *72:11 0.5 
4 *72:11 *72:13 368.167 
5 *72:13 *72:15 0.5 
6 *72:15 *72:17 1941.68 
7 *72:17 io_oeb[13] 0.548133 
*END

*D_NET *73 0.720024
*CONN
*P io_oeb[14] O
*I *897:io_oeb[7] O *D soc_sys
*CAP
1 io_oeb[14] 0.000972553
2 *897:io_oeb[7] 0.00149537
3 *73:25 0.0778863
4 *73:23 0.0769137
5 *73:21 0.116261
6 *73:19 0.116261
7 *73:17 0.00270903
8 *73:15 0.0042044
9 *73:15 *74:21 8.02168e-05
10 *73:15 *76:51 4.34601e-05
11 *73:15 *78:7 3.55373e-05
12 *73:17 *83:19 0.00541439
13 *73:17 *86:15 0.00294163
14 *73:21 *125:32 0
15 *73:21 *701:15 0
16 *73:21 *702:23 0
17 *73:21 *714:27 0.000121994
18 *73:21 *727:15 3.97351e-05
19 *73:21 *743:13 0.086788
20 *73:21 *757:29 0.0158119
21 *73:25 *108:17 0.000282288
22 *897:io_in[28] *73:15 0.00123516
23 *47:41 *73:17 0.000199914
24 *49:19 *73:17 0.00246362
25 *53:23 *73:17 0.000342163
26 *57:19 *73:17 0.000700398
27 *66:9 *73:25 0.000351815
28 *67:215 *73:21 0.000272957
29 *70:22 *73:25 0.0317206
30 *72:7 *73:15 0
31 *72:9 *73:17 0.000904477
32 *72:17 *73:25 0.17357
*RES
1 *897:io_oeb[7] *73:15 5.14547 
2 *73:15 *73:17 111.285 
3 *73:17 *73:19 0.5 
4 *73:19 *73:21 368.4 
5 *73:21 *73:23 0.5 
6 *73:23 *73:25 2130.03 
7 *73:25 io_oeb[14] 17.7681 
*END

*D_NET *74 0.704941
*CONN
*P io_oeb[15] O
*I *897:io_oeb[8] O *D soc_sys
*CAP
1 io_oeb[15] 0.124926
2 *897:io_oeb[8] 0.00236933
3 *74:81 0.124926
4 *74:79 0.0642912
5 *74:77 0.0806617
6 *74:43 0.0396717
7 *74:41 0.0250501
8 *74:31 0.00404389
9 *74:29 0.00242229
10 *74:23 0.00134412
11 *74:21 0.00358603
12 *74:21 io_out[36] 5.66513e-05
13 *74:21 *76:51 0.000555533
14 *74:21 *104:16 0.000589708
15 *74:21 *105:27 2.86496e-05
16 *74:21 *122:15 8.33923e-05
17 *74:21 *136:7 0.000726978
18 *74:23 *98:17 0.00177789
19 *74:23 *103:15 0.000477959
20 *74:23 *123:9 0.00320295
21 *74:29 *110:7 2.58821e-05
22 *74:31 *107:9 0.00092049
23 *74:31 *143:19 0.00278576
24 *74:41 io_out[37] 0.00150038
25 *74:41 *110:9 0.00334314
26 *74:43 *103:35 0.101946
27 *74:43 *107:21 1.03191e-05
28 *74:43 *108:13 0.0423881
29 *74:43 *112:31 0
30 *74:77 *103:39 0.000153878
31 *74:77 *118:67 0.00151123
32 *74:77 *648:37 0.00577737
33 *74:77 *768:12 2.06445e-05
34 *74:77 *773:40 0.00617917
35 *74:77 *774:16 0.00016764
36 *74:77 *775:9 9.14358e-05
37 *74:79 *897:sram_dat_i[23] 1.83008e-05
38 *74:79 *897:sram_dat_i[24] 1.79809e-05
39 *74:79 *897:sram_dat_i[25] 0
40 *74:79 *805:11 7.71989e-05
41 *74:79 *805:13 0.0369026
42 *74:79 *873:5 0
43 *74:79 *875:11 0.000932553
44 *897:io_in[0] *74:41 0
45 *897:io_in[17] *74:31 0.0011405
46 *897:io_in[28] *74:23 0.000771275
47 *38:21 *74:31 0.00299843
48 *44:29 *74:31 0.00098798
49 *45:49 *74:23 0.00510465
50 *45:49 *74:31 0.000952677
51 *47:41 *74:31 0.000314309
52 *49:19 *74:31 0.00484723
53 *67:257 *74:77 0.00123802
54 *69:15 *74:21 0.000277668
55 *70:16 *74:21 3.01345e-06
56 *71:23 *74:21 0.00066375
57 *73:15 *74:21 8.02168e-05
*RES
1 *897:io_oeb[8] *74:21 7.93213 
2 *74:21 *74:23 70.485 
3 *74:23 *74:29 1.27107 
4 *74:29 *74:31 118.935 
5 *74:31 *74:41 39.6887 
6 *74:41 *74:43 153.134 
7 *74:43 *74:77 48.6603 
8 *74:77 *74:79 178.654 
9 *74:79 *74:81 0.5 
10 *74:81 io_oeb[15] 2274.14 
*END

*D_NET *75 0.55982
*CONN
*P io_oeb[16] O
*I *897:io_oeb[9] O *D soc_sys
*CAP
1 io_oeb[16] 0.000147244
2 *897:io_oeb[9] 0.0141707
3 *75:34 0.0792031
4 *75:32 0.0790558
5 *75:30 0.130685
6 *75:28 0.144856
7 *75:28 *76:51 2.17246e-05
8 *75:28 *81:12 0.000784957
9 *75:28 *543:15 0.00135426
10 *75:28 *598:17 0.00324363
11 *75:28 *619:10 0.00137234
12 *75:30 *895:e_na_boost 0.00899885
13 *75:30 *125:32 0
14 *75:30 *598:17 0.00187467
15 *75:34 io_oeb[22] 0.0138696
16 *75:34 io_out[18] 7.86633e-05
17 *75:34 io_out[21] 0.000559013
18 *75:34 io_out[22] 0.00129313
19 *75:34 *77:21 0.00435764
20 *75:34 *80:26 0.0242578
21 *75:34 *116:27 0.0064046
22 *895:vinp_p *75:30 0.00932959
23 *39:15 *75:34 0.000769104
24 *40:11 *75:34 0.010607
25 *42:11 *75:34 0.00466415
26 *43:11 *75:34 0.0114977
27 *44:11 *75:34 0.000640656
28 *69:15 *75:28 0.00201806
29 *71:23 *75:28 0.0037057
*RES
1 *897:io_oeb[9] *75:28 16.6299 
2 *75:28 *75:30 373.55 
3 *75:30 *75:32 0.5 
4 *75:32 *75:34 267.162 
5 *75:34 io_oeb[16] 3.1025 
*END

*D_NET *76 0.490526
*CONN
*P io_oeb[17] O
*I *897:io_oeb[10] O *D soc_sys
*CAP
1 io_oeb[17] 0.000473725
2 *897:io_oeb[10] 0.0111649
3 *76:61 0.1251
4 *76:59 0.124626
5 *76:57 0.0978503
6 *76:55 0.0985076
7 *76:51 0.0118222
8 *76:51 io_oeb[36] 6.61056e-06
9 *76:51 *897:wbs_cyc_i 0.000457308
10 *76:51 *77:15 0
11 *76:51 *80:20 7.05319e-05
12 *76:51 *86:15 9.30528e-05
13 *76:51 *88:6 0.000232035
14 *76:51 *93:17 0.000223156
15 *76:51 *98:15 0.000559162
16 *76:51 *105:27 0.000316246
17 *76:51 *131:23 0.000500607
18 *76:55 *123:9 0.00203842
19 *76:57 *897:wbs_dat_i[1] 0
20 *76:57 *82:15 0.00201596
21 *76:57 *85:20 0
22 *76:57 *87:23 0.000140741
23 *76:57 *542:28 0
24 *76:57 *608:25 0
25 *76:57 *709:15 0
26 *76:57 *738:15 0
27 *45:31 *76:57 0.000330507
28 *45:33 *76:51 0.000692106
29 *45:47 *76:51 1.88261e-05
30 *46:43 *76:51 5.10739e-05
31 *47:39 *76:51 4.93858e-05
32 *47:39 *76:57 0
33 *48:27 *76:55 0.00350557
34 *50:19 *76:51 0.00103719
35 *51:11 *76:51 0.00108128
36 *57:17 *76:55 0.000739638
37 *67:215 *76:57 0.00382702
38 *69:15 *76:51 6.70176e-05
39 *70:16 *76:51 0.00221374
40 *71:23 *76:51 4.52573e-05
41 *72:7 *76:51 4.91079e-05
42 *73:15 *76:51 4.34601e-05
43 *74:21 *76:51 0.000555533
44 *75:28 *76:51 2.17246e-05
*RES
1 *897:io_oeb[10] *76:51 34.8344 
2 *76:51 *76:55 39.875 
3 *76:55 *76:57 251.575 
4 *76:57 *76:59 0.5 
5 *76:59 *76:61 2181.55 
6 *76:61 io_oeb[17] 8.3625 
*END

*D_NET *77 0.551395
*CONN
*P io_oeb[18] O
*I *897:io_oeb[11] O *D soc_sys
*CAP
1 io_oeb[18] 9.66811e-05
2 *897:io_oeb[11] 0.0152058
3 *77:21 0.0424633
4 *77:19 0.0423666
5 *77:17 0.128263
6 *77:15 0.143469
7 *77:15 *897:wbs_cyc_i 0.000656587
8 *77:15 *78:7 0
9 *77:17 *115:14 0
10 *77:17 *570:15 0
11 *77:17 *784:25 0.027953
12 *77:21 io_oeb[22] 0.000710161
13 *77:21 *112:41 0.0164085
14 *77:21 *116:27 0.0934099
15 *77:21 *118:79 0.00433666
16 *24:17 *77:17 0.0145369
17 *40:11 *77:21 0.00404604
18 *71:23 *77:15 0.0131154
19 *75:34 *77:21 0.00435764
20 *76:51 *77:15 0
*RES
1 *897:io_oeb[11] *77:15 5.27108 
2 *77:15 *77:17 385.054 
3 *77:17 *77:19 0.5 
4 *77:19 *77:21 171.662 
5 *77:21 io_oeb[18] 1.8575 
*END

*D_NET *78 0.414686
*CONN
*P io_oeb[19] O
*I *897:io_oeb[12] O *D soc_sys
*CAP
1 io_oeb[19] 0.119584
2 *897:io_oeb[12] 0.00049127
3 *78:31 0.119584
4 *78:29 0.0117248
5 *78:27 0.012041
6 *78:21 0.0309032
7 *78:19 0.0382314
8 *78:9 0.00949076
9 *78:7 0.00233761
10 *78:9 *87:15 0.00083194
11 *78:19 *897:wb_clk_i 0.00248423
12 *78:19 *897:wb_rst_i 0.000445611
13 *78:19 *897:wbs_adr_i[0] 0.000611668
14 *78:19 *897:wbs_adr_i[1] 4.10987e-05
15 *78:19 *897:wbs_adr_i[2] 0.000350129
16 *78:19 *897:wbs_cyc_i 4.29667e-05
17 *78:19 *897:wbs_dat_i[0] 8.02886e-05
18 *78:19 *897:wbs_dat_i[1] 0.00044866
19 *78:19 *897:wbs_dat_i[2] 4.21127e-05
20 *78:19 *897:wbs_sel_i[0] 8.02886e-05
21 *78:19 *897:wbs_sel_i[1] 2.20023e-05
22 *78:19 *897:wbs_sel_i[2] 4.29667e-05
23 *78:19 *897:wbs_stb_i 0.000363252
24 *78:19 *897:wbs_we_i 0.000285671
25 *78:19 *84:24 0.00215047
26 *78:19 *125:32 0.00337275
27 *78:19 *129:45 0.00103934
28 *78:19 *542:28 0.000299191
29 *78:19 *608:25 0.000299791
30 *78:19 *619:8 4.29667e-05
31 *78:19 *630:16 0.000698561
32 *78:21 *897:wb_clk_i 0.00259157
33 *78:21 *897:wbs_adr_i[10] 0.00023514
34 *78:21 *897:wbs_adr_i[11] 2.20023e-05
35 *78:21 *897:wbs_adr_i[12] 4.29667e-05
36 *78:21 *897:wbs_adr_i[14] 4.29667e-05
37 *78:21 *897:wbs_adr_i[16] 2.20023e-05
38 *78:21 *897:wbs_adr_i[17] 4.29667e-05
39 *78:21 *897:wbs_adr_i[18] 4.29667e-05
40 *78:21 *897:wbs_adr_i[19] 4.29667e-05
41 *78:21 *897:wbs_adr_i[20] 8.56708e-05
42 *78:21 *897:wbs_adr_i[21] 9.83877e-05
43 *78:21 *897:wbs_adr_i[22] 4.29667e-05
44 *78:21 *897:wbs_adr_i[23] 2.20023e-05
45 *78:21 *897:wbs_adr_i[25] 4.29667e-05
46 *78:21 *897:wbs_adr_i[26] 0.000430629
47 *78:21 *897:wbs_adr_i[27] 0.000440034
48 *78:21 *897:wbs_adr_i[3] 0.000322244
49 *78:21 *897:wbs_adr_i[4] 8.02886e-05
50 *78:21 *897:wbs_adr_i[5] 8.02886e-05
51 *78:21 *897:wbs_adr_i[6] 0.000251144
52 *78:21 *897:wbs_adr_i[7] 4.29667e-05
53 *78:21 *897:wbs_adr_i[8] 0.000345221
54 *78:21 *897:wbs_adr_i[9] 0.000311922
55 *78:21 *897:wbs_dat_i[10] 4.29667e-05
56 *78:21 *897:wbs_dat_i[11] 4.29667e-05
57 *78:21 *897:wbs_dat_i[12] 4.29667e-05
58 *78:21 *897:wbs_dat_i[13] 0.00217144
59 *78:21 *897:wbs_dat_i[14] 2.20023e-05
60 *78:21 *897:wbs_dat_i[15] 0.00133164
61 *78:21 *897:wbs_dat_i[16] 4.29667e-05
62 *78:21 *897:wbs_dat_i[17] 4.29667e-05
63 *78:21 *897:wbs_dat_i[18] 4.29667e-05
64 *78:21 *897:wbs_dat_i[19] 0.000141106
65 *78:21 *897:wbs_dat_i[20] 4.29667e-05
66 *78:21 *897:wbs_dat_i[21] 4.29667e-05
67 *78:21 *897:wbs_dat_i[22] 4.29667e-05
68 *78:21 *897:wbs_dat_i[23] 4.29667e-05
69 *78:21 *897:wbs_dat_i[24] 0.00148962
70 *78:21 *897:wbs_dat_i[25] 0.000435523
71 *78:21 *897:wbs_dat_i[26] 0.000363252
72 *78:21 *897:wbs_dat_i[27] 4.29667e-05
73 *78:21 *897:wbs_dat_i[3] 0.000577397
74 *78:21 *897:wbs_dat_i[4] 0.000719327
75 *78:21 *897:wbs_dat_i[5] 0.000788845
76 *78:21 *897:wbs_dat_i[6] 4.29667e-05
77 *78:21 *897:wbs_dat_i[7] 0.000311922
78 *78:21 *897:wbs_dat_i[8] 3.81927e-05
79 *78:21 *897:wbs_dat_i[9] 2.20023e-05
80 *78:21 *897:wbs_sel_i[3] 0.000796366
81 *78:21 *609:8 0.000316434
82 *78:21 *610:8 4.29667e-05
83 *78:21 *611:12 0.00104845
84 *78:21 *612:8 4.29667e-05
85 *78:21 *613:8 4.29667e-05
86 *78:21 *614:8 4.29667e-05
87 *78:21 *615:8 0.00023514
88 *78:21 *616:8 0.000435523
89 *78:21 *617:8 4.29667e-05
90 *78:21 *618:8 4.29667e-05
91 *78:21 *620:8 4.29667e-05
92 *78:21 *621:8 4.29667e-05
93 *78:21 *622:8 2.20023e-05
94 *78:21 *623:12 0.00101777
95 *78:21 *624:8 0.000512449
96 *78:21 *625:8 4.29667e-05
97 *78:21 *626:8 4.29667e-05
98 *78:21 *633:8 8.02886e-05
99 *78:21 *634:16 0.000885511
100 *78:21 *635:8 8.02886e-05
101 *78:21 *636:8 0.000187939
102 *78:21 *637:8 2.20023e-05
103 *78:21 *638:8 0.00125069
104 *78:21 *639:8 0.000345221
105 *78:21 *665:13 0.0166478
106 *78:21 *711:19 0.000143781
107 *78:21 *712:15 0.000350189
108 *78:21 *718:15 0.00211764
109 *78:21 *757:29 0
110 *78:29 *757:21 0
111 *78:29 *757:29 0.000907107
112 *78:29 *759:21 0
113 *78:29 *760:21 0
114 *47:39 *78:7 0.000119443
115 *48:27 *78:9 0.00262831
116 *48:33 *78:9 0.000411929
117 *48:35 *78:9 0.00153378
118 *49:19 *78:9 0.00905111
119 *73:15 *78:7 3.55373e-05
120 *77:15 *78:7 0
*RES
1 *897:io_oeb[12] *78:7 1.53867 
2 *78:7 *78:9 102.105 
3 *78:9 *78:19 28.6466 
4 *78:19 *78:21 108.443 
5 *78:21 *78:27 7.3225 
6 *78:27 *78:29 191.235 
7 *78:29 *78:31 2 
8 *78:31 io_oeb[19] 2173.03 
*END

*D_NET *80 0.458139
*CONN
*P io_oeb[20] O
*I *897:io_oeb[13] O *D soc_sys
*CAP
1 io_oeb[20] 0.000104014
2 *897:io_oeb[13] 0.0221435
3 *80:26 0.00986467
4 *80:24 0.00976066
5 *80:22 0.132841
6 *80:20 0.154984
7 *80:20 *897:wbs_we_i 0.000452158
8 *80:20 *81:12 0.0022822
9 *80:20 *84:24 0.00196566
10 *80:20 *85:20 0.00161807
11 *80:20 *131:23 8.44688e-05
12 *80:22 *604:15 0.00326149
13 *80:26 io_oeb[22] 0.000920248
14 *80:26 io_out[22] 0.00129313
15 *80:26 *116:27 0.0563771
16 *1:13 *80:22 0.023664
17 *43:11 *80:26 0.0114977
18 *44:11 *80:26 0.000640656
19 *47:39 *80:20 5.53706e-05
20 *51:11 *80:20 0
21 *71:25 *80:22 0
22 *75:34 *80:26 0.0242578
23 *76:51 *80:20 7.05319e-05
*RES
1 *897:io_oeb[13] *80:20 11.4279 
2 *80:20 *80:22 377.991 
3 *80:22 *80:24 0.5 
4 *80:24 *80:26 83.5633 
5 *80:26 io_oeb[20] 2.0825 
*END

*D_NET *81 0.356689
*CONN
*P io_oeb[21] O
*I *897:io_oeb[14] O *D soc_sys
*CAP
1 io_oeb[21] 0.0842882
2 *897:io_oeb[14] 0.0207184
3 *81:20 0.0950795
4 *81:14 0.0554908
5 *81:12 0.0654179
6 *81:12 *84:24 0.000563255
7 *81:14 *636:10 0.00480126
8 *81:20 *768:18 0.0269483
9 *1:13 *81:14 0
10 *24:13 *81:20 0
11 *47:39 *81:12 0.000314762
12 *75:28 *81:12 0.000784957
13 *80:20 *81:12 0.0022822
*RES
1 *897:io_oeb[14] *81:12 6.20024 
2 *81:12 *81:14 124.156 
3 *81:14 *81:20 42.1451 
4 *81:20 io_oeb[21] 1532.6 
*END

*D_NET *82 0.338451
*CONN
*P io_oeb[22] O
*I *897:io_oeb[15] O *D soc_sys
*CAP
1 io_oeb[22] 0.0115973
2 *897:io_oeb[15] 0.000143538
3 *82:17 0.147299
4 *82:15 0.13646
5 *82:9 0.00212771
6 *82:7 0.00151296
7 io_oeb[22] io_oeb[23] 0.000101824
8 io_oeb[22] io_out[23] 0.00251226
9 io_oeb[22] *116:27 0.00140159
10 *82:7 *83:17 0
11 *82:9 *91:11 0.000828737
12 *82:15 *85:20 0
13 *17:11 *82:17 0.00297743
14 *45:33 *82:9 0.00180003
15 *46:35 *82:9 0.00445045
16 *47:39 *82:15 0.000144197
17 *50:19 *82:9 0.00757778
18 *75:34 io_oeb[22] 0.0138696
19 *76:57 *82:15 0.00201596
20 *77:21 io_oeb[22] 0.000710161
21 *80:26 io_oeb[22] 0.000920248
*RES
1 *897:io_oeb[15] *82:7 0.839467 
2 *82:7 *82:9 85.275 
3 *82:9 *82:15 4.03873 
4 *82:15 *82:17 368.775 
5 *82:17 io_oeb[22] 44.6455 
*END

*D_NET *83 0.317483
*CONN
*P io_oeb[23] O
*I *897:io_oeb[16] O *D soc_sys
*CAP
1 io_oeb[23] 0.00173007
2 *897:io_oeb[16] 0.00151713
3 *83:19 0.106828
4 *83:17 0.106615
5 *83:17 io_oeb[34] 0.000343798
6 *83:17 io_oeb[35] 5.2563e-05
7 *83:17 *123:9 0.00291473
8 io_oeb[22] io_oeb[23] 0.000101824
9 *897:io_in[28] *83:17 1.19825e-05
10 *46:19 *83:19 0
11 *46:27 *83:19 0.0206851
12 *46:35 *83:19 0
13 *47:19 *83:19 0
14 *48:33 *83:17 0.000641948
15 *48:35 *83:17 0.00130641
16 *49:19 *83:19 0
17 *50:19 *83:19 0
18 *53:23 *83:19 0.068856
19 *57:17 *83:17 0.000463573
20 *73:17 *83:19 0.00541439
21 *82:7 *83:17 0
*RES
1 *897:io_oeb[16] *83:17 36.3755 
2 *83:17 *83:19 2229.31 
3 *83:19 io_oeb[23] 9.0161 
*END

*D_NET *84 0.36417
*CONN
*P io_oeb[24] O
*I *897:io_oeb[17] O *D soc_sys
*CAP
1 io_oeb[24] 0.000126497
2 *897:io_oeb[17] 0.00911444
3 *84:34 0.0145397
4 *84:32 0.0147567
5 *84:26 0.0460962
6 *84:24 0.0548672
7 *84:24 *897:wb_clk_i 0.00064361
8 *84:24 *897:wb_rst_i 0.00161266
9 *84:24 *85:20 0.00708731
10 *84:24 *644:19 0.000957093
11 *84:24 *645:13 0.000623848
12 *84:26 *85:22 0.0569851
13 *84:26 *93:27 0.00300379
14 *84:26 *122:17 0
15 *84:26 *130:17 0.00468319
16 *84:26 *132:17 0.00680229
17 *84:34 *85:30 0.00298464
18 *84:34 *122:25 0.0266702
19 *84:34 *124:17 0.00408486
20 *47:19 *84:26 0.0841856
21 *47:39 *84:24 0.000100498
22 *48:11 *84:26 0.00303615
23 *48:19 *84:26 0.00238158
24 *49:17 *84:26 0.00200893
25 *50:11 *84:26 0.0083009
26 *53:21 *84:26 0.00277872
27 *54:17 *84:26 0.00105855
28 *78:19 *84:24 0.00215047
29 *80:20 *84:24 0.00196566
30 *81:12 *84:24 0.000563255
*RES
1 *897:io_oeb[17] *84:24 25.9332 
2 *84:24 *84:26 1619.35 
3 *84:26 *84:32 1.70807 
4 *84:32 *84:34 65.3271 
5 *84:34 io_oeb[24] 0.863533 
*END

*D_NET *85 0.433013
*CONN
*P io_oeb[25] O
*I *897:io_oeb[18] O *D soc_sys
*CAP
1 io_oeb[25] 0.000116881
2 *897:io_oeb[18] 0.00879762
3 *85:30 0.0225339
4 *85:28 0.0226083
5 *85:22 0.00924366
6 *85:20 0.01785
7 *85:20 *897:wb_rst_i 8.0911e-05
8 *85:20 *897:wbs_we_i 3.67965e-05
9 *85:20 *88:6 0.000376832
10 *85:20 *89:25 0.000934713
11 *85:20 *121:23 0.0001842
12 *85:20 *123:15 0.000129288
13 *85:20 *131:23 0.000716012
14 *85:20 *542:28 0.00114789
15 *85:22 *93:27 0.00220944
16 *85:22 *122:17 0
17 *85:22 *124:9 0.039651
18 *85:22 *130:17 0.00399102
19 *85:22 *132:17 0.00608204
20 *85:28 io_oeb[31] 2.29603e-05
21 *85:30 *122:17 0.00292859
22 *85:30 *122:25 0.00860461
23 *85:30 *124:17 0.0948984
24 *85:30 *130:17 0.00243087
25 *47:17 *85:30 0.00515748
26 *47:19 *85:22 8.90579e-05
27 *47:39 *85:20 0.000852412
28 *48:11 *85:30 0.0953624
29 *48:19 *85:22 0.016752
30 *51:23 *85:20 0.000548953
31 *76:57 *85:20 0
32 *80:20 *85:20 0.00161807
33 *82:15 *85:20 0
34 *84:24 *85:20 0.00708731
35 *84:26 *85:22 0.0569851
36 *84:34 *85:30 0.00298464
*RES
1 *897:io_oeb[18] *85:20 25.2254 
2 *85:20 *85:22 640.155 
3 *85:22 *85:28 1.41673 
4 *85:28 *85:30 198.403 
5 *85:30 io_oeb[25] 0.759667 
*END

*D_NET *86 0.287811
*CONN
*P io_oeb[26] O
*I *897:io_oeb[19] O *D soc_sys
*CAP
1 io_oeb[26] 0.000141803
2 *897:io_oeb[19] 0.00145699
3 *86:25 0.0490981
4 *86:23 0.0491809
5 *86:17 0.00958087
6 *86:15 0.0108133
7 *86:15 *93:17 1.85553e-05
8 *86:15 *94:15 4.45644e-05
9 *86:15 *98:15 0.00185643
10 *86:15 *121:23 4.30022e-05
11 *86:15 *132:15 3.65076e-05
12 *86:17 *92:9 0.00532377
13 *86:17 *94:17 0.00656456
14 *86:17 *122:17 0
15 *86:17 *124:9 0.00293339
16 *86:17 *127:9 0.00378667
17 *86:17 *130:9 0.0258827
18 *86:17 *130:17 0.00101732
19 *86:23 io_out[33] 0
20 *86:25 *92:17 0.00754357
21 *86:25 *124:17 0.108811
22 *49:19 *86:15 0.00064245
23 *73:17 *86:15 0.00294163
24 *76:51 *86:15 9.30528e-05
*RES
1 *897:io_oeb[19] *86:15 37.3761 
2 *86:15 *86:17 346.395 
3 *86:17 *86:23 1.475 
4 *86:23 *86:25 222.09 
5 *86:25 io_oeb[26] 0.7774 
*END

*D_NET *87 0.284833
*CONN
*P io_oeb[27] O
*I *897:io_oeb[20] O *D soc_sys
*CAP
1 io_oeb[27] 0.00596813
2 *897:io_oeb[20] 0.00100676
3 *87:33 0.0247204
4 *87:31 0.0188241
5 *87:25 0.0292417
6 *87:23 0.0300775
7 *87:17 0.00175095
8 *87:15 0.00185007
9 io_oeb[27] *124:17 0.000234659
10 *87:15 *92:7 0
11 *87:15 *98:15 0.000202127
12 *87:15 *121:23 0.000462748
13 *87:17 io_out[34] 0.00129962
14 *87:17 *89:21 0.00369818
15 *87:17 *122:17 0.00521149
16 *87:17 *131:9 0.000791906
17 *87:17 *132:9 0.000321128
18 *87:25 *127:17 0.0171598
19 *87:33 *88:6 0.0357261
20 *87:33 *123:17 0
21 *87:33 *127:17 0.0221884
22 *45:21 *87:25 0
23 *45:31 *87:25 0.000145679
24 *46:35 *87:25 0.0757954
25 *46:35 *87:33 0.00488159
26 *47:19 io_oeb[27] 0.00134925
27 *48:11 io_oeb[27] 0
28 *48:35 *87:15 0.000834242
29 *49:17 io_oeb[27] 0
30 *51:23 *87:15 0
31 *57:17 *87:15 0.000118136
32 *76:57 *87:23 0.000140741
33 *78:9 *87:15 0.00083194
*RES
1 *897:io_oeb[20] *87:15 12.6774 
2 *87:15 *87:17 58.245 
3 *87:17 *87:23 2.66947 
4 *87:23 *87:25 848.235 
5 *87:25 *87:31 1.1254 
6 *87:31 *87:33 87.4633 
7 *87:33 io_oeb[27] 14.4061 
*END

*D_NET *88 0.280284
*CONN
*P io_oeb[28] O
*I *897:io_oeb[21] O *D soc_sys
*CAP
1 io_oeb[28] 0.00110765
2 *897:io_oeb[21] 0
3 *88:6 0.0305175
4 *88:4 0.0294099
5 io_oeb[28] *124:17 0.000234659
6 *88:6 *89:17 0.000234659
7 *88:6 *89:27 0.0957095
8 *88:6 *91:11 0.0833433
9 *88:6 *93:17 0.000234659
10 *88:6 *123:17 0
11 *88:6 *127:17 0.000243162
12 *88:6 *131:23 3.32811e-05
13 *45:21 *88:6 0.0027691
14 *46:43 *88:6 0.000111241
15 *47:39 *88:6 0
16 *76:51 *88:6 0.000232035
17 *85:20 *88:6 0.000376832
18 *87:33 *88:6 0.0357261
*RES
1 *897:io_oeb[21] *88:4 0.5 
2 *88:4 *88:6 219.161 
3 *88:6 io_oeb[28] 2.76607 
*END

*D_NET *89 0.218658
*CONN
*P io_oeb[29] O
*I *897:io_oeb[22] O *D soc_sys
*CAP
1 io_oeb[29] 0.00104358
2 *897:io_oeb[22] 0.0017153
3 *89:27 0.0367973
4 *89:25 0.0364147
5 *89:21 0.0022122
6 *89:17 0.00326649
7 *89:17 io_oeb[35] 0.000319359
8 *89:17 io_oeb[36] 0.000278356
9 *89:17 *91:9 4.21127e-05
10 *89:17 *91:11 0.000106321
11 *89:17 *93:17 0.000805148
12 *89:21 *122:17 0.000345414
13 *89:21 *132:9 0.000352018
14 *89:25 *123:15 0.000120784
15 *89:25 *127:15 0.00085385
16 *89:27 *123:17 0.0123566
17 *45:21 *89:27 0.0205729
18 *46:43 *89:17 0.000478975
19 *85:20 *89:25 0.000934713
20 *87:17 *89:21 0.00369818
21 *88:6 *89:17 0.000234659
22 *88:6 *89:27 0.0957095
*RES
1 *897:io_oeb[22] *89:17 21.7882 
2 *89:17 *89:21 48.545 
3 *89:21 *89:25 2.5482 
4 *89:25 *89:27 174.63 
5 *89:27 io_oeb[29] 2.6242 
*END

*D_NET *91 0.204073
*CONN
*P io_oeb[30] O
*I *897:io_oeb[23] O *D soc_sys
*CAP
1 io_oeb[30] 0.00104447
2 *897:io_oeb[23] 0.000126228
3 *91:11 0.0199428
4 *91:9 0.0190246
5 *91:11 *127:17 0.0773858
6 *45:31 *91:11 0.000571041
7 *45:33 *91:11 0.000353922
8 *46:35 *91:11 0.000780609
9 *50:19 *91:11 0.000522881
10 *82:9 *91:11 0.000828737
11 *88:6 *91:11 0.0833433
12 *89:17 *91:9 4.21127e-05
13 *89:17 *91:11 0.000106321
*RES
1 *897:io_oeb[23] *91:9 0.759667 
2 *91:9 *91:11 152.322 
3 *91:11 io_oeb[30] 2.6394 
*END

*D_NET *92 0.141076
*CONN
*P io_oeb[31] O
*I *897:io_oeb[24] O *D soc_sys
*CAP
1 io_oeb[31] 0.000270009
2 *897:io_oeb[24] 0.000915805
3 *92:17 0.0161758
4 *92:15 0.0159802
5 *92:9 0.00276459
6 *92:7 0.00360599
7 io_oeb[31] *124:17 0.000234659
8 *92:7 *98:15 5.01834e-05
9 *92:9 io_out[34] 0.00292979
10 *92:9 *93:19 0.00919251
11 *92:9 *94:17 0.00053499
12 *92:9 *122:17 0.00317032
13 *92:9 *127:9 0.005482
14 *92:17 io_oeb[33] 0.000205264
15 *92:17 io_out[34] 7.07318e-05
16 *92:17 *94:17 0.0135702
17 *92:17 *122:17 0.0138055
18 *92:17 *124:17 0.0181447
19 *92:17 *130:17 0.0208647
20 *20:17 *92:17 0.000205264
21 *53:29 *92:7 1.21359e-05
22 *85:28 io_oeb[31] 2.29603e-05
23 *86:17 *92:9 0.00532377
24 *86:25 *92:17 0.00754357
25 *87:15 *92:7 0
*RES
1 *897:io_oeb[24] *92:7 2.1796 
2 *92:7 *92:9 163.815 
3 *92:9 *92:15 1.1254 
4 *92:15 *92:17 90.9087 
5 *92:17 io_oeb[31] 1.01807 
*END

*D_NET *93 0.116165
*CONN
*P io_oeb[32] O
*I *897:io_oeb[25] O *D soc_sys
*CAP
1 io_oeb[32] 0.000403766
2 *897:io_oeb[25] 0.00118278
3 *93:27 0.00920967
4 *93:25 0.00908075
5 *93:19 0.001722
6 *93:17 0.00262994
7 io_oeb[32] *124:15 0.000302171
8 io_oeb[32] *124:17 0.000234659
9 *93:17 io_oeb[36] 0.000412925
10 *93:17 *94:15 9.65865e-05
11 *93:17 *131:23 7.40928e-05
12 *93:17 *132:15 0
13 *93:19 io_out[34] 0.00198645
14 *93:19 *122:17 0.00919601
15 *93:25 io_oeb[34] 4.24435e-05
16 *93:27 *130:17 0.00778437
17 *93:27 *132:17 0.0223063
18 *45:33 *93:17 0.00043321
19 *46:43 *93:17 0.000230341
20 *47:19 *93:27 0.00892573
21 *55:11 *93:27 0.015283
22 *57:17 *93:27 0.00894045
23 *76:51 *93:17 0.000223156
24 *84:26 *93:27 0.00300379
25 *85:22 *93:27 0.00220944
26 *86:15 *93:17 1.85553e-05
27 *88:6 *93:17 0.000234659
28 *89:17 *93:17 0.000805148
29 *92:9 *93:19 0.00919251
*RES
1 *897:io_oeb[25] *93:17 14.9834 
2 *93:17 *93:19 103.125 
3 *93:19 *93:25 1.475 
4 *93:25 *93:27 65.4132 
5 *93:27 io_oeb[32] 1.4842 
*END

*D_NET *94 0.0718678
*CONN
*P io_oeb[33] O
*I *897:io_oeb[26] O *D soc_sys
*CAP
1 io_oeb[33] 0.000323351
2 *897:io_oeb[26] 0.000865256
3 *94:17 0.00661977
4 *94:15 0.00716168
5 *94:15 io_oeb[34] 0
6 *94:15 *123:9 0.00100129
7 *94:15 *124:9 0.00100741
8 *94:15 *131:23 0.000847862
9 *94:17 io_oeb[34] 0.00924713
10 *94:17 io_out[34] 0.0125142
11 *94:17 *127:9 0.000824154
12 *94:17 *130:17 0.0002131
13 *94:17 *132:17 0.0101907
14 *46:41 *94:15 3.57472e-05
15 *86:15 *94:15 4.45644e-05
16 *86:17 *94:17 0.00656456
17 *92:9 *94:17 0.00053499
18 *92:17 io_oeb[33] 0.000205264
19 *92:17 *94:17 0.0135702
20 *93:17 *94:15 9.65865e-05
*RES
1 *897:io_oeb[26] *94:15 14.5135 
2 *94:15 *94:17 49.5647 
3 *94:17 io_oeb[33] 1.1346 
*END

*D_NET *95 0.0301776
*CONN
*P io_oeb[34] O
*I *897:io_oeb[27] O *D soc_sys
*CAP
1 io_oeb[34] 0.00346748
2 *897:io_oeb[27] 0.00346748
3 io_oeb[34] io_oeb[35] 0.000311259
4 io_oeb[34] io_oeb[36] 0.000592249
5 io_oeb[34] io_out[34] 0.000267479
6 io_oeb[34] *124:9 0.0012917
7 io_oeb[34] *130:9 0.00197589
8 io_oeb[34] *131:23 0
9 io_oeb[34] *132:17 0.00895564
10 *46:41 io_oeb[34] 3.57472e-05
11 *57:17 io_oeb[34] 0.000179334
12 *83:17 io_oeb[34] 0.000343798
13 *93:25 io_oeb[34] 4.24435e-05
14 *94:15 io_oeb[34] 0
15 *94:17 io_oeb[34] 0.00924713
*RES
1 *897:io_oeb[27] io_oeb[34] 21.4111 
*END

*D_NET *96 0.0199191
*CONN
*P io_oeb[35] O
*I *897:io_oeb[28] O *D soc_sys
*CAP
1 io_oeb[35] 0.00346859
2 *897:io_oeb[28] 0.00346859
3 io_oeb[35] io_oeb[36] 0.00450886
4 io_oeb[35] io_out[34] 0.00428182
5 io_oeb[35] io_out[35] 0.00246061
6 io_oeb[35] *121:9 0.000866436
7 io_oeb[35] *122:15 0
8 io_oeb[35] *124:9 0.000102302
9 io_oeb[35] *136:7 7.87237e-05
10 io_oeb[34] io_oeb[35] 0.000311259
11 *83:17 io_oeb[35] 5.2563e-05
12 *89:17 io_oeb[35] 0.000319359
*RES
1 *897:io_oeb[28] io_oeb[35] 18.2241 
*END

*D_NET *97 0.0566906
*CONN
*P io_oeb[36] O
*I *897:io_oeb[29] O *D soc_sys
*CAP
1 io_oeb[36] 0.0129458
2 *897:io_oeb[29] 0.0129458
3 io_oeb[36] io_out[35] 7.6323e-05
4 io_oeb[36] io_out[36] 0.000489582
5 io_oeb[36] *98:17 0.00138415
6 io_oeb[36] *103:15 0.000720667
7 io_oeb[36] *108:9 0.000704178
8 io_oeb[36] *112:17 0.000769582
9 io_oeb[36] *123:9 0.00143671
10 io_oeb[36] *124:9 0.00138415
11 io_oeb[36] *127:9 0.000832814
12 io_oeb[36] *130:9 0.00166588
13 io_oeb[36] *132:7 0
14 io_oeb[36] *143:19 0.000566348
15 io_oeb[34] io_oeb[36] 0.000592249
16 io_oeb[35] io_oeb[36] 0.00450886
17 *897:io_in[17] io_oeb[36] 0.000283551
18 *897:io_in[28] io_oeb[36] 0.0118035
19 *897:io_in[30] io_oeb[36] 8.31947e-05
20 *45:49 io_oeb[36] 0.000623376
21 *57:17 io_oeb[36] 0.002176
22 *76:51 io_oeb[36] 6.61056e-06
23 *89:17 io_oeb[36] 0.000278356
24 *93:17 io_oeb[36] 0.000412925
*RES
1 *897:io_oeb[29] io_oeb[36] 45.3377 
*END

*D_NET *98 0.0721582
*CONN
*P io_oeb[37] O
*I *897:io_oeb[30] O *D soc_sys
*CAP
1 io_oeb[37] 0.00867094
2 *897:io_oeb[30] 0.000992891
3 *98:17 0.0115995
4 *98:15 0.00392145
5 io_oeb[37] io_out[36] 0
6 io_oeb[37] io_out[37] 0.0132343
7 *98:17 *108:9 0.0008982
8 *98:17 *109:9 0.00223517
9 *98:17 *112:17 0.000413301
10 *98:17 *123:9 0.00982337
11 *98:17 *124:9 0.00956253
12 io_oeb[36] *98:17 0.00138415
13 *897:io_in[28] *98:17 0.00122404
14 *45:49 *98:17 0.000313315
15 *48:43 *98:17 0.00163792
16 *49:19 *98:15 0.00180124
17 *51:23 *98:15 0
18 *74:23 *98:17 0.00177789
19 *76:51 *98:15 0.000559162
20 *86:15 *98:15 0.00185643
21 *87:15 *98:15 0.000202127
22 *92:7 *98:15 5.01834e-05
*RES
1 *897:io_oeb[30] *98:15 23.9413 
2 *98:15 *98:17 175.545 
3 *98:17 io_oeb[37] 34.8893 
*END

*D_NET *103 0.645452
*CONN
*P io_oeb[7] O
*I *897:io_oeb[0] O *D soc_sys
*CAP
1 io_oeb[7] 0.0814878
2 *897:io_oeb[0] 0.000660069
3 *103:41 0.0814878
4 *103:39 0.0914484
5 *103:37 0.0914484
6 *103:35 0.0172677
7 *103:33 0.0188734
8 *103:23 0.00594624
9 *103:21 0.00481872
10 *103:15 0.0018399
11 *103:13 0.00202174
12 *103:13 *133:15 0.000181926
13 *103:13 *136:7 3.85824e-05
14 *103:15 *123:9 0
15 *103:15 *133:23 1.4548e-05
16 *103:21 *113:7 0
17 *103:23 *110:9 0.00221107
18 *103:33 *118:17 0
19 *103:35 *108:13 0.000334329
20 *103:39 *716:9 0.00184313
21 *103:39 *717:9 0.00145814
22 *103:39 *727:9 0.00151724
23 *103:39 *743:9 0.00157436
24 *103:39 *748:9 0.00151424
25 *103:39 *749:9 0.00995006
26 *103:39 *754:9 0.00194945
27 *103:39 *761:15 0
28 *103:39 *771:11 0
29 *103:39 *775:9 0
30 *103:39 *819:9 0.00178223
31 io_oeb[36] *103:15 0.000720667
32 *31:23 *103:33 0.00407047
33 *37:21 *103:33 0.00231647
34 *42:17 *103:35 0.102982
35 *45:49 *103:15 0.00241498
36 *46:51 *103:23 0.00547828
37 *48:35 *103:15 5.33602e-05
38 *49:19 *103:15 0.00316896
39 *74:23 *103:15 0.000477959
40 *74:43 *103:35 0.101946
41 *74:77 *103:39 0.000153878
*RES
1 *897:io_oeb[0] *103:13 1.96933 
2 *103:13 *103:15 62.325 
3 *103:15 *103:21 1.912 
4 *103:21 *103:23 118.935 
5 *103:23 *103:33 49.7283 
6 *103:33 *103:35 153.833 
7 *103:35 *103:37 0.5 
8 *103:37 *103:39 190.393 
9 *103:39 *103:41 0.5 
10 *103:41 io_oeb[7] 214.557 
*END

*D_NET *104 0.685502
*CONN
*P io_oeb[8] O
*I *897:io_oeb[1] O *D soc_sys
*CAP
1 io_oeb[8] 0.0872199
2 *897:io_oeb[1] 0.00591935
3 *104:28 0.0872199
4 *104:26 0.042724
5 *104:24 0.042724
6 *104:22 0.0177736
7 *104:20 0.0177736
8 *104:18 0.00535139
9 *104:16 0.0112707
10 *104:16 *105:27 0.000248177
11 *104:16 *115:12 4.21886e-05
12 *104:16 *118:9 0.000205264
13 *104:16 *118:11 0.000732534
14 *104:16 *119:12 0.000100736
15 *104:16 *120:12 0.000736864
16 *104:16 *125:32 0.000173526
17 *104:16 *126:20 4.21886e-05
18 *104:16 *129:45 0.000102894
19 *104:16 *142:16 0.000190183
20 *104:16 *143:17 0.000120133
21 *104:18 *118:11 0.00439652
22 *104:18 *141:11 0.00110372
23 *104:18 *142:16 0.000238796
24 *104:22 *897:adc_data[4] 0.00923736
25 *104:22 *107:21 0.000195346
26 *104:22 *112:33 0.00531398
27 *104:22 *118:43 0.00361676
28 *104:22 *540:50 0.0742572
29 *104:22 *542:36 0.00193201
30 *104:22 *644:17 0.000831568
31 *104:22 *649:25 0.0105655
32 *104:26 *897:sram_dat_i[27] 0.000318843
33 *104:26 *112:37 0.118027
34 *104:26 *118:67 1.79483e-05
35 *104:26 *652:31 8.67442e-05
36 *104:26 *676:9 9.82982e-05
37 *104:26 *712:9 0
38 *104:26 *752:9 0
39 *104:26 *789:9 0.0174948
40 *104:26 *874:15 0.000158282
41 *104:26 *878:11 6.84894e-05
42 *104:26 *880:11 0.000575153
43 *897:io_in[1] *104:18 0.000874066
44 *897:io_in[2] *104:18 0.00249178
45 *40:25 *104:22 0.00579594
46 *40:35 *104:22 0.00322732
47 *40:37 *104:18 0
48 *67:239 *104:26 0.00188706
49 *67:261 *104:22 0.101431
50 *74:21 *104:16 0.000589708
*RES
1 *897:io_oeb[1] *104:16 18.163 
2 *104:16 *104:18 140.355 
3 *104:18 *104:20 0.5 
4 *104:20 *104:22 152.172 
5 *104:22 *104:24 0.5 
6 *104:24 *104:26 1331.2 
7 *104:26 *104:28 0.5 
8 *104:28 io_oeb[8] 215.285 
*END

*D_NET *105 0.904882
*CONN
*P io_oeb[9] O
*I *897:io_oeb[2] O *D soc_sys
*CAP
1 io_oeb[9] 0.000919266
2 *897:io_oeb[2] 0.0184623
3 *105:33 0.0465229
4 *105:31 0.0456036
5 *105:29 0.0348884
6 *105:27 0.0533507
7 *105:27 *129:45 0.00203991
8 *105:27 *565:15 0.00686445
9 *105:29 *111:27 0.232485
10 *105:29 *754:13 0.00242914
11 *105:33 *107:25 0.0162243
12 *105:33 *109:25 0.0232778
13 *105:33 *111:31 0.0261354
14 *105:33 *143:51 0.0155025
15 *31:9 *105:33 0.105036
16 *32:9 *105:33 0.0225403
17 *33:9 *105:33 0.0242212
18 *70:16 *105:27 0.00292353
19 *70:18 *105:29 0.224862
20 *74:21 *105:27 2.86496e-05
21 *76:51 *105:27 0.000316246
22 *104:16 *105:27 0.000248177
*RES
1 *897:io_oeb[2] *105:27 32.5429 
2 *105:27 *105:29 344.277 
3 *105:29 *105:31 0.5 
4 *105:31 *105:33 191.599 
5 *105:33 io_oeb[9] 2.50007 
*END

*D_NET *107 0.841478
*CONN
*P io_out[10] O
*I *897:io_out[3] O *D soc_sys
*CAP
1 io_out[10] 0.000805004
2 *897:io_out[3] 0.000450643
3 *107:25 0.0279966
4 *107:23 0.0271916
5 *107:21 0.0699236
6 *107:19 0.0699236
7 *107:17 0.000848458
8 *107:15 0.00103582
9 *107:9 0.00209588
10 *107:7 0.00235916
11 *107:7 *108:7 0
12 *107:7 *143:17 0
13 *107:9 *114:9 0.00365057
14 *107:15 *114:15 0.000312264
15 *107:17 *108:9 0.00530214
16 *107:17 *112:21 0.0053495
17 *107:21 *897:adc_data[4] 0.00162064
18 *107:21 *898:wbs_adr_i[10] 0
19 *107:21 *898:wbs_adr_i[20] 1.00909e-05
20 *107:21 *898:wbs_adr_i[28] 5.48672e-05
21 *107:21 *898:wbs_adr_i[29] 0
22 *107:21 *898:wbs_adr_i[31] 2.253e-05
23 *107:21 *898:wbs_adr_i[5] 0.000691234
24 *107:21 *898:wbs_dat_i[11] 0
25 *107:21 *898:wbs_dat_i[22] 0.00166415
26 *107:21 *898:wbs_dat_i[24] 2.253e-05
27 *107:21 *898:wbs_sel_i[0] 0.0125516
28 *107:21 *108:13 0.246945
29 *107:21 *112:31 0
30 *107:21 *118:43 0.000452051
31 *107:21 *540:50 0.000867226
32 *107:21 *809:17 0.00049671
33 *107:21 *839:12 0
34 *107:21 *841:29 0.000534453
35 *107:21 *843:14 0.000544685
36 *107:21 *845:27 0.000811124
37 *107:21 *846:8 2.253e-05
38 *107:21 *888:21 0.00165734
39 *107:25 *143:51 0.132237
40 *897:io_in[0] *107:17 0.000791604
41 *897:io_in[19] *107:9 0.00102064
42 *31:9 *107:25 0.0063062
43 *32:9 *107:25 0.15008
44 *37:21 *107:9 0.000888808
45 *38:21 *107:9 0.000149226
46 *40:35 *107:21 6.2397e-05
47 *44:29 *107:17 2.40271e-05
48 *47:41 *107:9 0.00423353
49 *67:261 *107:21 0.0421203
50 *74:31 *107:9 0.00092049
51 *74:43 *107:21 1.03191e-05
52 *104:22 *107:21 0.000195346
53 *105:33 *107:25 0.0162243
*RES
1 *897:io_out[3] *107:7 1.36387 
2 *107:7 *107:9 86.805 
3 *107:9 *107:15 1.50413 
4 *107:15 *107:17 59.775 
5 *107:17 *107:19 0.5 
6 *107:19 *107:21 367.176 
7 *107:21 *107:23 0.5 
8 *107:23 *107:25 1678.01 
9 *107:25 io_out[10] 2.23787 
*END

*D_NET *108 0.853531
*CONN
*P io_out[11] O
*I *897:io_out[4] O *D soc_sys
*CAP
1 io_out[11] 6.26021e-05
2 *897:io_out[4] 0.000665708
3 *108:17 0.035161
4 *108:15 0.0350984
5 *108:13 0.0748052
6 *108:11 0.0748052
7 *108:9 0.00224347
8 *108:7 0.00290918
9 *108:7 *109:7 0
10 *108:7 *111:21 1.88261e-05
11 *108:9 *112:17 0.00456637
12 *108:9 *112:21 0.00108819
13 *108:9 *143:19 0.000155276
14 *108:17 *142:30 0.114376
15 io_oeb[36] *108:9 0.000704178
16 *897:io_in[0] *108:9 0.000850688
17 *897:io_in[28] *108:9 0.000306412
18 *26:9 *108:17 0.031071
19 *42:17 *108:13 0.000798039
20 *44:29 *108:9 0.00783784
21 *45:49 *108:9 0.00517814
22 *66:9 *108:17 0.0174557
23 *70:22 *108:17 0.0137056
24 *72:17 *108:17 0.133517
25 *73:25 *108:17 0.000282288
26 *74:43 *108:13 0.0423881
27 *98:17 *108:9 0.0008982
28 *103:35 *108:13 0.000334329
29 *107:7 *108:7 0
30 *107:17 *108:9 0.00530214
31 *107:21 *108:13 0.246945
*RES
1 *897:io_out[4] *108:7 1.77173 
2 *108:7 *108:9 149.025 
3 *108:9 *108:11 0.5 
4 *108:11 *108:13 368.749 
5 *108:13 *108:15 0.5 
6 *108:15 *108:17 1876.4 
7 *108:17 io_out[11] 0.6064 
*END

*D_NET *109 0.893482
*CONN
*P io_out[12] O
*I *897:io_out[5] O *D soc_sys
*CAP
1 io_out[12] 0.000819295
2 *897:io_out[5] 0.000762783
3 *109:25 0.0304102
4 *109:23 0.0295909
5 *109:21 0.0773401
6 *109:19 0.078312
7 *109:9 0.00411389
8 *109:7 0.00390477
9 *109:7 *110:7 0
10 *109:7 *111:21 1.88261e-05
11 *109:9 io_out[36] 0.00041352
12 *109:9 *112:17 0.00240004
13 *109:9 *112:21 0.00750945
14 *109:9 *113:9 0
15 *109:9 *118:19 0.00518123
16 *109:19 *112:31 0.000372044
17 *109:19 *114:27 0.00105566
18 *109:19 *118:43 0.000415023
19 *109:19 *540:19 0.000176658
20 *109:19 *542:36 0.00228426
21 *109:21 *898:wbs_adr_i[30] 0.00199578
22 *109:21 *898:wbs_dat_i[26] 0.000301031
23 *109:21 *898:wbs_stb_i 0.00212645
24 *109:21 *112:33 0
25 *109:21 *114:29 0.16704
26 *109:21 *540:58 0.0108278
27 *109:21 *541:27 0.00418892
28 *109:21 *644:17 0.000274882
29 *109:21 *646:22 0
30 *109:21 *646:30 0.00442521
31 *109:21 *647:33 0.00143004
32 *109:21 *649:17 0.000833191
33 *109:21 *649:25 0.000387226
34 *109:21 *650:37 0.030076
35 *109:21 *651:33 0.000598554
36 *109:21 *656:29 0.00832766
37 *109:21 *808:19 0.00010189
38 *109:21 *834:11 0.000118286
39 *109:21 *841:29 0.00228516
40 *109:25 *111:31 0.150452
41 *897:io_in[0] *109:9 0.000451303
42 *897:io_in[30] *109:9 0.000817435
43 *31:9 *109:25 0.00106647
44 *33:9 *109:25 0.0207201
45 *34:9 *109:25 0.186071
46 *39:41 *109:9 0.00115442
47 *40:25 *109:21 0
48 *43:25 *109:21 0.0237805
49 *43:33 *109:21 0.00061438
50 *43:37 *109:9 0.000347987
51 *44:29 *109:9 0
52 *48:43 *109:9 0.00207406
53 *98:17 *109:9 0.00223517
54 *105:33 *109:25 0.0232778
55 *108:7 *109:7 0
*RES
1 *897:io_out[5] *109:7 1.94653 
2 *109:7 *109:9 156.675 
3 *109:9 *109:19 7.87357 
4 *109:19 *109:21 2146 
5 *109:21 *109:23 2 
6 *109:23 *109:25 2080.52 
7 *109:25 io_out[12] 2.47093 
*END

*D_NET *110 0.650764
*CONN
*P io_out[13] O
*I *897:io_out[6] O *D soc_sys
*CAP
1 io_out[13] 0.00161707
2 *897:io_out[6] 0.000944108
3 *110:25 0.127624
4 *110:23 0.126007
5 *110:21 0.0646117
6 *110:19 0.0649346
7 *110:13 0.0294163
8 *110:11 0.0290934
9 *110:9 0.00395438
10 *110:7 0.00489849
11 *110:9 io_out[37] 0.00207853
12 *110:9 *113:9 0.00391713
13 *110:9 *114:17 0.00581492
14 *110:9 *136:9 0.0020951
15 *110:13 *851:11 0.00027412
16 *110:13 *852:9 0.00136188
17 *110:19 *890:9 0
18 *110:21 *898:wbs_dat_i[10] 0.000578951
19 *110:21 *825:9 0
20 *110:21 *826:9 0
21 *110:21 *828:9 0
22 *110:21 *840:9 0.0286195
23 *110:21 *864:25 0
24 *897:io_in[26] *110:9 0.00041352
25 *32:21 *110:13 0.103899
26 *38:17 *110:13 0.00017096
27 *39:27 *110:21 0.000111837
28 *39:29 *110:21 0
29 *39:37 *110:13 0.0385264
30 *39:41 *110:9 0
31 *46:51 *110:9 0.000131515
32 *51:25 *110:9 0.00409011
33 *74:29 *110:7 2.58821e-05
34 *74:41 *110:9 0.00334314
35 *103:23 *110:9 0.00221107
36 *109:7 *110:7 0
*RES
1 *897:io_out[6] *110:7 2.29613 
2 *110:7 *110:9 178.095 
3 *110:9 *110:11 0.5 
4 *110:11 *110:13 160.621 
5 *110:13 *110:19 7.3225 
6 *110:19 *110:21 1213.47 
7 *110:21 *110:23 2 
8 *110:23 *110:25 2293.45 
9 *110:25 io_out[13] 4.33547 
*END

*D_NET *111 0.884229
*CONN
*P io_out[14] O
*I *897:io_out[7] O *D soc_sys
*CAP
1 io_out[14] 0.000752952
2 *897:io_out[7] 0.00881506
3 *111:31 0.0408574
4 *111:29 0.0401045
5 *111:27 0.0824956
6 *111:25 0.0944088
7 *111:21 0.0207283
8 *111:21 *112:15 0.000671263
9 *111:25 *587:15 0
10 *111:25 *640:19 0.01132
11 *111:27 *653:14 0
12 *111:27 *700:15 0
13 *111:27 *717:15 0.0115362
14 *111:27 *733:15 0.000297263
15 *31:9 *111:31 0.000992459
16 *33:9 *111:31 0.145971
17 *34:9 *111:31 0.00777412
18 *35:9 *111:31 0.00768795
19 *50:19 *111:21 0.000673572
20 *70:18 *111:27 3.26352e-05
21 *105:29 *111:27 0.232485
22 *105:33 *111:31 0.0261354
23 *108:7 *111:21 1.88261e-05
24 *109:7 *111:21 1.88261e-05
25 *109:25 *111:31 0.150452
*RES
1 *897:io_out[7] *111:21 11.3037 
2 *111:21 *111:25 41.5375 
3 *111:25 *111:27 350.774 
4 *111:27 *111:29 0.5 
5 *111:29 *111:31 2080.91 
6 *111:31 io_out[14] 2.41267 
*END

*D_NET *112 0.730813
*CONN
*P io_out[15] O
*I *897:io_out[8] O *D soc_sys
*CAP
1 io_out[15] 2.71749e-05
2 *897:io_out[8] 0.00161476
3 *112:45 0.00327929
4 *112:43 0.00328796
5 *112:41 0.0619083
6 *112:39 0.0618725
7 *112:37 0.108416
8 *112:35 0.108416
9 *112:33 0.0326767
10 *112:31 0.0333314
11 *112:21 0.00190143
12 *112:19 0.00127156
13 *112:17 0.00090105
14 *112:15 0.00249102
15 *112:15 *113:7 0
16 *112:15 *118:11 0
17 *112:15 *143:17 0.000675843
18 *112:31 *542:36 0.000573635
19 *112:33 *540:50 0.017492
20 *112:37 *118:75 0
21 *112:37 *698:11 0
22 *112:37 *698:13 0
23 *112:37 *699:19 0
24 *112:37 *699:21 0
25 *112:37 *703:11 0
26 *112:37 *705:17 3.48887e-05
27 *112:37 *706:9 0.000680937
28 *112:37 *722:9 0.0250558
29 *112:37 *776:11 0
30 *112:37 *789:9 4.36573e-06
31 io_oeb[36] *112:17 0.000769582
32 *897:io_in[0] *112:21 0.000736667
33 *897:io_in[29] *112:15 0.000326061
34 *897:io_in[30] *112:15 1.85126e-05
35 *897:io_in[30] *112:21 0.000231218
36 *39:15 *112:41 0.00140533
37 *40:25 *112:33 0.0963308
38 *40:35 *112:31 0.000645987
39 *40:35 *112:33 0.00108026
40 *44:29 *112:21 0.000118514
41 *50:19 *112:15 0.001119
42 *74:43 *112:31 0
43 *77:21 *112:41 0.0164085
44 *98:17 *112:17 0.000413301
45 *104:22 *112:33 0.00531398
46 *104:26 *112:37 0.118027
47 *107:17 *112:21 0.0053495
48 *107:21 *112:31 0
49 *108:9 *112:17 0.00456637
50 *108:9 *112:21 0.00108819
51 *109:9 *112:17 0.00240004
52 *109:9 *112:21 0.00750945
53 *109:19 *112:31 0.000372044
54 *109:21 *112:33 0
55 *111:21 *112:15 0.000671263
*RES
1 *897:io_out[8] *112:15 32.553 
2 *112:15 *112:17 51.435 
3 *112:17 *112:19 0.45 
4 *112:19 *112:21 83.925 
5 *112:21 *112:31 6.01657 
6 *112:31 *112:33 897.795 
7 *112:33 *112:35 2 
8 *112:35 *112:37 2550.87 
9 *112:37 *112:39 2 
10 *112:39 *112:41 1068.74 
11 *112:41 *112:43 0.615 
12 *112:43 *112:45 56.1675 
13 *112:45 io_out[15] 2.435 
*END

*D_NET *113 0.700633
*CONN
*P io_out[16] O
*I *897:io_out[9] O *D soc_sys
*CAP
1 io_out[16] 0.140446
2 *897:io_out[9] 0.000854518
3 *113:23 0.140446
4 *113:21 0.026573
5 *113:19 0.0266421
6 *113:13 0.0279098
7 *113:11 0.0278407
8 *113:9 0.00331442
9 *113:7 0.00416893
10 *113:7 *114:7 0
11 *113:9 io_out[37] 0.00077022
12 *113:9 *114:17 0.00581142
13 *113:9 *136:9 0.00291512
14 *113:13 *898:wbs_adr_i[0] 0.000319031
15 *113:13 *141:13 0
16 *113:13 *142:18 0.100981
17 *113:13 *558:19 0.00995552
18 *113:13 *573:17 0.00667817
19 *113:13 *583:17 0.0277823
20 *113:13 *596:15 0.00549839
21 *113:13 *642:21 0.00279642
22 *113:21 *898:wbs_adr_i[22] 0.000738262
23 *113:21 *898:wbs_adr_i[7] 0.00260898
24 *113:21 *898:wbs_dat_i[27] 0.000442118
25 *113:21 *142:26 0.000317389
26 *113:21 *797:21 0.0001469
27 *113:21 *807:13 0.0262932
28 *897:io_in[26] *113:9 0.00189425
29 *897:io_in[30] *113:9 0.00116164
30 *39:41 *113:9 0.000126798
31 *43:33 *113:13 4.75184e-05
32 *43:37 *113:9 0.00817716
33 *44:25 *113:13 7.40426e-06
34 *48:43 *113:9 0.00192904
35 *65:13 *113:21 0.0908718
36 *65:21 *113:13 0.00025038
37 *67:97 io_out[16] 0
38 *103:21 *113:7 0
39 *109:9 *113:9 0
40 *110:9 *113:9 0.00391713
41 *112:15 *113:7 0
*RES
1 *897:io_out[9] *113:7 2.1796 
2 *113:7 *113:9 173.505 
3 *113:9 *113:11 0.5 
4 *113:11 *113:13 156.134 
5 *113:13 *113:19 3.4975 
6 *113:19 *113:21 868.125 
7 *113:21 *113:23 2 
8 *113:23 io_out[16] 2556.3 
*END

*D_NET *114 0.690887
*CONN
*P io_out[17] O
*I *897:io_out[10] O *D soc_sys
*CAP
1 io_out[17] 0.14026
2 *897:io_out[10] 0.000366475
3 *114:31 0.14026
4 *114:29 0.0346349
5 *114:27 0.0358449
6 *114:17 0.00211776
7 *114:15 0.00136876
8 *114:9 0.00357902
9 *114:7 0.00348445
10 *114:17 io_out[37] 0.000824571
11 *114:27 *118:43 0.000539518
12 *114:27 *540:19 0.000882274
13 *114:27 *541:15 0
14 *114:29 *898:wbs_dat_i[26] 0.000574568
15 *114:29 *898:wbs_dat_i[30] 0.00240864
16 *114:29 *898:wbs_stb_i 0.00221393
17 *114:29 *118:45 0.0708441
18 *114:29 *646:30 0.0163965
19 *114:29 *656:29 0.0112049
20 *114:29 *808:21 0.0269908
21 *114:29 *834:11 0.00012905
22 *114:29 *883:21 0.00112515
23 *897:io_in[19] *114:9 0.00101953
24 *897:io_in[30] *114:17 0.000496578
25 *37:21 *114:9 1.4548e-05
26 *42:21 *114:9 0.00112416
27 *43:33 *114:27 0.00365623
28 *47:41 *114:9 0.000722745
29 *50:19 *114:9 0
30 *53:31 *114:9 0.000416759
31 *57:19 *114:9 0.0037014
32 *107:9 *114:9 0.00365057
33 *107:15 *114:15 0.000312264
34 *109:19 *114:27 0.00105566
35 *109:21 *114:29 0.16704
36 *110:9 *114:17 0.00581492
37 *113:7 *114:7 0
38 *113:9 *114:17 0.00581142
*RES
1 *897:io_out[10] *114:7 1.24733 
2 *114:7 *114:9 108.735 
3 *114:9 *114:15 2.02853 
4 *114:15 *114:17 64.875 
5 *114:17 *114:27 10.0589 
6 *114:27 *114:29 1515.34 
7 *114:29 *114:31 2 
8 *114:31 io_out[17] 2552.99 
*END

*D_NET *115 0.595016
*CONN
*P io_out[18] O
*I *897:io_out[11] O *D soc_sys
*CAP
1 io_out[18] 0.000168551
2 *897:io_out[11] 0.0161683
3 *115:26 0.143231
4 *115:24 0.240288
5 *115:14 0.124554
6 *115:12 0.0434965
7 *115:12 *119:12 0.00245288
8 *115:14 *897:wbs_dat_i[5] 0.000129766
9 *115:14 *570:15 0.0104775
10 *115:24 *895:en_pd 0.0135603
11 *24:17 *115:14 0
12 *24:17 *115:24 0.000369321
13 *75:34 io_out[18] 7.86633e-05
14 *77:17 *115:14 0
15 *104:16 *115:12 4.21886e-05
*RES
1 *897:io_out[11] *115:12 4.58232 
2 *115:12 *115:14 82.6247 
3 *115:14 *115:24 24.4747 
4 *115:24 *115:26 313.305 
5 *115:26 io_out[18] 3.2179 
*END

*D_NET *116 0.570291
*CONN
*P io_out[19] O
*I *897:io_out[12] O *D soc_sys
*CAP
1 io_out[19] 6.94464e-05
2 *897:io_out[12] 0.0215313
3 *116:27 0.0147704
4 *116:25 0.0147009
5 *116:23 0.135595
6 *116:21 0.157127
7 *116:21 io_out[35] 0.000211234
8 *116:21 io_out[36] 0.00485961
9 *116:21 *118:9 7.66523e-06
10 *116:21 *121:9 0.000253564
11 *116:21 *122:15 1.8935e-05
12 *116:21 *125:32 0.000276133
13 *116:21 *127:9 0.000253564
14 *116:21 *129:45 0.00454359
15 *116:21 *136:9 0.000751439
16 *116:23 *571:19 0.00761453
17 *116:23 *665:17 0.028319
18 io_oeb[22] *116:27 0.00140159
19 *897:io_in[26] *116:21 0.00219321
20 *40:11 *116:27 0.0114111
21 *42:11 *116:27 0.00806082
22 *48:43 *116:21 0.000129951
23 *75:34 *116:27 0.0064046
24 *77:21 *116:27 0.0934099
25 *80:26 *116:27 0.0563771
*RES
1 *897:io_out[12] *116:21 16.6976 
2 *116:21 *116:23 392.289 
3 *116:23 *116:25 0.5 
4 *116:25 *116:27 138.392 
5 *116:27 io_out[19] 1.5725 
*END

*D_NET *118 0.597002
*CONN
*P io_out[20] O
*I *897:io_out[13] O *D soc_sys
*CAP
1 io_out[20] 0.000163854
2 *897:io_out[13] 0.000155022
3 *118:79 0.00527583
4 *118:77 0.00511197
5 *118:75 0.123143
6 *118:73 0.123395
7 *118:67 0.0149023
8 *118:55 0.0148883
9 *118:45 0.0232503
10 *118:43 0.0515141
11 *118:19 0.029322
12 *118:17 0.00155778
13 *118:11 0.00598503
14 *118:9 0.00540233
15 *118:11 *141:11 0.00139179
16 *118:11 *142:16 0.000228267
17 *118:43 *540:19 0.00425218
18 *118:43 *540:48 0.000109072
19 *118:43 *540:50 0.000163867
20 *118:43 *541:21 0.0015053
21 *118:43 *541:27 0.00314976
22 *118:43 *542:36 0.00284457
23 *118:43 *640:17 0.00122227
24 *118:43 *644:17 0.000595564
25 *118:43 *646:30 0.00372518
26 *118:43 *649:25 0.00017859
27 *118:43 *650:45 0.000107174
28 *118:45 *646:30 0.00823052
29 *118:45 *655:33 0.0186473
30 *118:45 *656:29 0.00594342
31 *118:55 *897:adc_data[11] 0.000340034
32 *118:55 *897:adc_data[4] 0.000142513
33 *118:55 *647:31 0.000554639
34 *118:55 *656:29 0.000129287
35 *118:67 *897:sram_dat_i[23] 0.000254943
36 *118:67 *648:37 0.000113828
37 *118:67 *699:19 0.000147931
38 *118:67 *699:21 0.00177472
39 *118:67 *699:47 0.00695218
40 *118:67 *741:19 0.000605242
41 *118:67 *758:23 0.000482856
42 *118:67 *768:12 3.26119e-05
43 *118:67 *773:40 0.004835
44 *118:67 *776:13 0.00272507
45 *118:67 *777:9 0.000660546
46 *118:67 *787:11 0.00118571
47 *118:67 *874:15 0.000272891
48 *118:75 *652:31 1.87994e-05
49 *118:75 *656:23 0.000183624
50 *118:75 *657:19 3.86814e-05
51 *118:75 *699:49 0.00643722
52 *118:75 *700:11 0.0102689
53 *118:75 *722:9 0
54 *118:75 *773:42 0.00118568
55 *118:75 *776:13 0
56 *118:75 *776:31 0
57 *118:75 *777:9 0
58 *897:io_in[0] *118:19 0.000451303
59 *897:io_in[30] *118:19 0.000139918
60 *897:io_in[3] *118:17 0.000105448
61 *897:io_in[4] *118:17 0.000137406
62 *39:41 *118:19 0.00522786
63 *40:35 *118:43 0.000546466
64 *40:37 *118:11 0
65 *44:29 *118:19 0
66 *50:19 *118:11 0
67 *67:247 *118:67 0.000752396
68 *67:261 *118:43 0.00168047
69 *74:77 *118:67 0.00151123
70 *77:21 *118:79 0.00433666
71 *103:33 *118:17 0
72 *104:16 *118:9 0.000205264
73 *104:16 *118:11 0.000732534
74 *104:18 *118:11 0.00439652
75 *104:22 *118:43 0.00361676
76 *104:26 *118:67 1.79483e-05
77 *107:21 *118:43 0.000452051
78 *109:9 *118:19 0.00518123
79 *109:19 *118:43 0.000415023
80 *112:15 *118:11 0
81 *112:37 *118:75 0
82 *114:27 *118:43 0.000539518
83 *114:29 *118:45 0.0708441
84 *116:21 *118:9 7.66523e-06
*RES
1 *897:io_out[13] *118:9 0.930667 
2 *118:9 *118:11 121.485 
3 *118:11 *118:17 2.55293 
4 *118:17 *118:19 58.245 
5 *118:19 *118:43 9.445 
6 *118:43 *118:45 641.805 
7 *118:45 *118:55 5.0771 
8 *118:55 *118:67 48.7287 
9 *118:67 *118:73 7.21 
10 *118:73 *118:75 2275.22 
11 *118:75 *118:77 2 
12 *118:77 *118:79 88.2525 
13 *118:79 io_out[20] 4.7075 
*END

*D_NET *119 0.394414
*CONN
*P io_out[21] O
*I *897:io_out[14] O *D soc_sys
*CAP
1 io_out[21] 0.000884254
2 *897:io_out[14] 0.0114635
3 *119:22 0.114856
4 *119:20 0.113972
5 *119:18 0.0248258
6 *119:16 0.0248258
7 *119:14 0.0284975
8 *119:12 0.0399609
9 *119:14 *120:14 0
10 *119:14 *601:13 0.00986259
11 *119:18 *895:e_pd 7.94016e-06
12 *119:18 *895:en_pd 0.016842
13 *119:22 *700:19 0.00530313
14 *75:34 io_out[21] 0.000559013
15 *104:16 *119:12 0.000100736
16 *115:12 *119:12 0.00245288
*RES
1 *897:io_out[14] *119:12 3.73063 
2 *119:12 *119:14 84.7932 
3 *119:14 *119:16 0.5 
4 *119:16 *119:18 65.6463 
5 *119:18 *119:20 0.5 
6 *119:20 *119:22 314.339 
7 *119:22 io_out[21] 7.1807 
*END

*D_NET *120 0.35556
*CONN
*P io_out[22] O
*I *897:io_out[15] O *D soc_sys
*CAP
1 io_out[22] 0.000357348
2 *897:io_out[15] 0.0127694
3 *120:22 0.117934
4 *120:20 0.127928
5 *120:14 0.041447
6 *120:12 0.0438645
7 *120:12 *126:20 0.00200399
8 *23:9 *120:14 0.00593304
9 *75:34 io_out[22] 0.00129313
10 *80:26 io_out[22] 0.00129313
11 *104:16 *120:12 0.000736864
12 *119:14 *120:14 0
*RES
1 *897:io_out[15] *120:12 5.72469 
2 *120:12 *120:14 83.9319 
3 *120:14 *120:20 26.3257 
4 *120:20 *120:22 312.96 
5 *120:22 io_out[22] 5.02417 
*END

*D_NET *121 0.381833
*CONN
*P io_out[23] O
*I *897:io_out[16] O *D soc_sys
*CAP
1 io_out[23] 0.00108161
2 *897:io_out[16] 0.00086907
3 *121:25 0.112172
4 *121:23 0.116603
5 *121:9 0.00725043
6 *121:7 0.00260716
7 *121:7 *122:15 0
8 *121:9 io_out[34] 0.000460764
9 *121:9 io_out[36] 0.000389181
10 *121:9 *122:17 0.00329593
11 *121:9 *127:9 0.00783779
12 *121:9 *136:9 0.00381402
13 *121:23 *897:wbs_we_i 0.000167637
14 *121:25 *125:34 0
15 *121:25 *126:22 0.117999
16 *121:25 *129:51 3.99192e-05
17 *121:25 *608:25 0.000832474
18 *121:25 *608:27 0.000169477
19 io_oeb[22] io_out[23] 0.00251226
20 io_oeb[35] *121:9 0.000866436
21 *48:43 *121:9 0.00095125
22 *51:23 *121:23 0.000969019
23 *85:20 *121:23 0.0001842
24 *86:15 *121:23 4.30022e-05
25 *87:15 *121:23 0.000462748
26 *116:21 *121:9 0.000253564
*RES
1 *897:io_out[16] *121:7 2.1796 
2 *121:7 *121:9 106.695 
3 *121:9 *121:23 3.65281 
4 *121:23 *121:25 380.403 
5 *121:25 io_out[23] 7.34043 
*END

*D_NET *122 0.377035
*CONN
*P io_out[24] O
*I *897:io_out[17] O *D soc_sys
*CAP
1 io_out[24] 0.000126497
2 *897:io_out[17] 0.00168308
3 *122:25 0.00723742
4 *122:23 0.00717734
5 *122:17 0.0950069
6 *122:15 0.0966235
7 *122:15 io_out[35] 0
8 *122:15 io_out[36] 0.000500404
9 *122:15 *123:7 0
10 *122:15 *136:7 4.80783e-05
11 *122:17 io_out[34] 0.00594318
12 *122:17 *124:9 0
13 *122:17 *124:17 0.0549917
14 *122:17 *127:9 0.000492566
15 *122:17 *131:9 0.000182572
16 *122:17 *136:9 0.000237998
17 *122:25 io_out[25] 0.000234659
18 io_oeb[35] *122:15 0
19 *46:11 *122:25 0.0221165
20 *46:19 *122:17 0
21 *47:17 *122:25 0.000177107
22 *47:19 *122:17 0
23 *47:41 *122:15 0.0012491
24 *48:9 *122:23 0
25 *48:19 *122:17 0
26 *51:25 *122:17 0.00646229
27 *57:19 *122:15 0.0032142
28 *74:21 *122:15 8.33923e-05
29 *84:26 *122:17 0
30 *84:34 *122:25 0.0266702
31 *85:22 *122:17 0
32 *85:30 *122:17 0.00292859
33 *85:30 *122:25 0.00860461
34 *86:17 *122:17 0
35 *87:17 *122:17 0.00521149
36 *89:21 *122:17 0.000345414
37 *92:9 *122:17 0.00317032
38 *92:17 *122:17 0.0138055
39 *93:19 *122:17 0.00919601
40 *116:21 *122:15 1.8935e-05
41 *121:7 *122:15 0
42 *121:9 *122:17 0.00329593
*RES
1 *897:io_out[17] *122:15 40.6691 
2 *122:15 *122:17 1862.11 
3 *122:17 *122:23 1.1254 
4 *122:23 *122:25 56.886 
5 *122:25 io_out[24] 0.863533 
*END

*D_NET *123 0.283449
*CONN
*P io_out[25] O
*I *897:io_out[18] O *D soc_sys
*CAP
1 io_out[25] 0.00123218
2 *897:io_out[18] 0.000708155
3 *123:17 0.111283
4 *123:15 0.110482
5 *123:9 0.00336111
6 *123:7 0.003638
7 *123:7 *124:7 0
8 *123:9 *124:9 0.00268419
9 *123:9 *132:17 0.000800125
10 *123:9 *133:23 0.00377947
11 *123:15 *127:15 0.000687893
12 io_oeb[36] *123:9 0.00143671
13 *897:io_in[28] *123:9 0.000344519
14 *45:21 *123:17 0.00914893
15 *47:19 *123:9 2.95526e-05
16 *47:39 *123:15 0.00115377
17 *48:27 *123:9 0.000256663
18 *48:33 *123:9 0.000207402
19 *48:35 *123:9 0.000393978
20 *74:23 *123:9 0.00320295
21 *76:55 *123:9 0.00203842
22 *83:17 *123:9 0.00291473
23 *85:20 *123:15 0.000129288
24 *87:33 *123:17 0
25 *88:6 *123:17 0
26 *89:25 *123:15 0.000120784
27 *89:27 *123:17 0.0123566
28 *94:15 *123:9 0.00100129
29 *98:17 *123:9 0.00982337
30 *103:15 *123:9 0
31 *122:15 *123:7 0
32 *122:25 io_out[25] 0.000234659
*RES
1 *897:io_out[18] *123:7 1.83 
2 *123:7 *123:9 174.015 
3 *123:9 *123:15 2.93167 
4 *123:15 *123:17 314.769 
5 *123:17 io_out[25] 3.34873 
*END

*D_NET *124 0.460164
*CONN
*P io_out[26] O
*I *897:io_out[19] O *D soc_sys
*CAP
1 io_out[26] 0.000202195
2 *897:io_out[19] 0.000769945
3 *124:17 0.0229573
4 *124:15 0.0229178
5 *124:9 0.0120833
6 *124:7 0.0126905
7 *124:9 io_out[36] 0.000330795
8 *124:9 *130:9 0.0359852
9 *124:9 *130:17 0.00452521
10 *124:9 *132:17 0.00470839
11 *124:17 io_out[29] 0.000234659
12 *124:17 io_out[31] 0.000234659
13 *124:17 *130:17 1.00725e-05
14 io_oeb[27] *124:17 0.000234659
15 io_oeb[28] *124:17 0.000234659
16 io_oeb[31] *124:17 0.000234659
17 io_oeb[32] *124:15 0.000302171
18 io_oeb[32] *124:17 0.000234659
19 io_oeb[34] *124:9 0.0012917
20 io_oeb[35] *124:9 0.000102302
21 io_oeb[36] *124:9 0.00138415
22 *17:9 *124:17 0.000234659
23 *47:19 *124:9 0
24 *48:43 *124:9 0.000787492
25 *49:17 *124:17 0.000234659
26 *50:9 *124:17 0.000234659
27 *55:9 *124:17 0.000234659
28 *84:34 *124:17 0.00408486
29 *85:22 *124:9 0.039651
30 *85:30 *124:17 0.0948984
31 *86:17 *124:9 0.00293339
32 *86:25 *124:17 0.108811
33 *92:17 *124:17 0.0181447
34 *94:15 *124:9 0.00100741
35 *98:17 *124:9 0.00956253
36 *122:17 *124:9 0
37 *122:17 *124:17 0.0549917
38 *123:7 *124:7 0
39 *123:9 *124:9 0.00268419
*RES
1 *897:io_out[19] *124:7 1.94653 
2 *124:7 *124:9 616.185 
3 *124:9 *124:15 1.475 
4 *124:15 *124:17 206.5 
5 *124:17 io_out[26] 0.863533 
*END

*D_NET *125 0.284054
*CONN
*P io_out[27] O
*I *897:io_out[20] O *D soc_sys
*CAP
1 io_out[27] 0.00477492
2 *897:io_out[20] 0.0249982
3 *125:34 0.112072
4 *125:32 0.132295
5 *125:32 *126:20 3.26119e-05
6 *125:32 *598:17 0.00386035
7 *125:32 *630:16 0.000133395
8 *897:io_in[26] *125:32 0.00206494
9 *73:21 *125:32 0
10 *75:30 *125:32 0
11 *78:19 *125:32 0.00337275
12 *104:16 *125:32 0.000173526
13 *116:21 *125:32 0.000276133
14 *121:25 *125:34 0
*RES
1 *897:io_out[20] *125:32 48.2276 
2 *125:32 *125:34 247.93 
3 *125:34 io_out[27] 11.7594 
*END

*D_NET *126 0.314854
*CONN
*P io_out[28] O
*I *897:io_out[21] O *D soc_sys
*CAP
1 io_out[28] 0.00484362
2 *897:io_out[21] 0.0187283
3 *126:22 0.0365961
4 *126:20 0.0504807
5 *126:20 *897:wb_clk_i 0.00107084
6 *126:20 *897:wb_rst_i 0.00107345
7 *126:20 *542:28 0.000129766
8 *126:20 *576:13 0
9 *126:22 *129:51 0.0818532
10 *56:15 *126:20 0
11 *104:16 *126:20 4.21886e-05
12 *120:12 *126:20 0.00200399
13 *121:25 *126:22 0.117999
14 *125:32 *126:20 3.26119e-05
*RES
1 *897:io_out[21] *126:20 32.7866 
2 *126:20 *126:22 215.457 
3 *126:22 io_out[28] 12.4586 
*END

*D_NET *127 0.29597
*CONN
*P io_out[29] O
*I *897:io_out[22] O *D soc_sys
*CAP
1 io_out[29] 0.00103307
2 *897:io_out[22] 0.000787122
3 *127:17 0.0499486
4 *127:15 0.0493311
5 *127:9 0.0030623
6 *127:7 0.0034338
7 *127:9 io_out[34] 0.000659618
8 *127:9 *130:9 0.00486021
9 io_oeb[36] *127:9 0.000832814
10 *46:35 *127:17 0.0221789
11 *46:49 *127:7 0.000200161
12 *48:43 *127:9 0.00225702
13 *50:19 *127:17 0.0199552
14 *86:17 *127:9 0.00378667
15 *87:25 *127:17 0.0171598
16 *87:33 *127:17 0.0221884
17 *88:6 *127:17 0.000243162
18 *89:25 *127:15 0.00085385
19 *91:11 *127:17 0.0773858
20 *92:9 *127:9 0.005482
21 *94:17 *127:9 0.000824154
22 *116:21 *127:9 0.000253564
23 *121:9 *127:9 0.00783779
24 *122:17 *127:9 0.000492566
25 *123:15 *127:15 0.000687893
26 *124:17 io_out[29] 0.000234659
*RES
1 *897:io_out[22] *127:7 2.12133 
2 *127:7 *127:9 162.285 
3 *127:9 *127:15 2.40727 
4 *127:15 *127:17 182.555 
5 *127:17 io_out[29] 2.533 
*END

*D_NET *129 0.219445
*CONN
*P io_out[30] O
*I *897:io_out[23] O *D soc_sys
*CAP
1 io_out[30] 0.0049931
2 *897:io_out[23] 0.0163864
3 *129:51 0.0406054
4 *129:49 0.0359379
5 *129:45 0.016712
6 *129:45 io_out[35] 7.10991e-06
7 *129:45 *897:wb_clk_i 0.00229023
8 *129:45 *897:wb_rst_i 0.000255388
9 *129:45 *897:wbs_adr_i[0] 0.000267022
10 *129:45 *897:wbs_adr_i[1] 0.00690351
11 *129:45 *897:wbs_sel_i[0] 8.02886e-05
12 *129:45 *133:15 9.65699e-05
13 *129:45 *576:13 3.28439e-06
14 *129:45 *608:25 0.000991305
15 *129:49 *897:wb_rst_i 0.00133849
16 *129:49 *542:28 0.00107344
17 *129:49 *608:25 0.000135539
18 *129:51 *897:wbs_we_i 4.4195e-05
19 *46:43 *129:45 0.000451823
20 *46:49 *129:45 7.51501e-05
21 *50:19 *129:45 0.00117823
22 *78:19 *129:45 0.00103934
23 *104:16 *129:45 0.000102894
24 *105:27 *129:45 0.00203991
25 *116:21 *129:45 0.00454359
26 *121:25 *129:51 3.99192e-05
27 *126:22 *129:51 0.0818532
*RES
1 *897:io_out[23] *129:45 48.7353 
2 *129:45 *129:49 2.57733 
3 *129:49 *129:51 149.652 
4 *129:51 io_out[30] 12.5751 
*END

*D_NET *130 0.179466
*CONN
*P io_out[31] O
*I *897:io_out[24] O *D soc_sys
*CAP
1 io_out[31] 0.000400936
2 *897:io_out[24] 0.000818528
3 *130:17 0.0132821
4 *130:15 0.0129255
5 *130:9 0.00599628
6 *130:7 0.00677052
7 *130:7 *131:7 0
8 *130:9 io_out[36] 0.000116216
9 *130:9 *132:17 0.004348
10 *130:17 *132:17 0.00477161
11 io_oeb[34] *130:9 0.00197589
12 io_oeb[36] *130:9 0.00166588
13 *46:49 *130:7 0
14 *48:11 *130:17 0.000241421
15 *48:17 io_out[31] 1.57237e-05
16 *48:19 *130:17 0.00534045
17 *48:43 *130:9 0.00172178
18 *54:17 *130:17 0.00543241
19 *55:11 *130:17 0.00116041
20 *84:26 *130:17 0.00468319
21 *85:22 *130:17 0.00399102
22 *85:30 *130:17 0.00243087
23 *86:17 *130:9 0.0258827
24 *86:17 *130:17 0.00101732
25 *92:17 *130:17 0.0208647
26 *93:27 *130:17 0.00778437
27 *94:17 *130:17 0.0002131
28 *124:9 *130:9 0.0359852
29 *124:9 *130:17 0.00452521
30 *124:17 io_out[31] 0.000234659
31 *124:17 *130:17 1.00725e-05
32 *127:9 *130:9 0.00486021
*RES
1 *897:io_out[24] *130:7 2.0048 
2 *130:7 *130:9 403.515 
3 *130:9 *130:15 1.06713 
4 *130:15 *130:17 74.7156 
5 *130:17 io_out[31] 1.25113 
*END

*D_NET *131 0.109102
*CONN
*P io_out[32] O
*I *897:io_out[25] O *D soc_sys
*CAP
1 io_out[32] 0.00284508
2 *897:io_out[25] 0.00100614
3 *131:25 0.0413949
4 *131:23 0.0411029
5 *131:9 0.00420755
6 *131:7 0.0026606
7 *131:7 *132:7 0
8 *131:9 *132:9 0.00491502
9 io_oeb[34] *131:23 0
10 *45:47 *131:7 0.000124967
11 *47:39 *131:23 5.20787e-06
12 *51:11 *131:25 0
13 *51:23 *131:23 9.2797e-06
14 *51:25 *131:9 0.00759974
15 *76:51 *131:23 0.000500607
16 *80:20 *131:23 8.44688e-05
17 *85:20 *131:23 0.000716012
18 *87:17 *131:9 0.000791906
19 *88:6 *131:23 3.32811e-05
20 *93:17 *131:23 7.40928e-05
21 *94:15 *131:23 0.000847862
22 *122:17 *131:9 0.000182572
23 *130:7 *131:7 0
*RES
1 *897:io_out[25] *131:7 2.41267 
2 *131:7 *131:9 97.515 
3 *131:9 *131:23 3.77291 
4 *131:23 *131:25 93.062 
5 *131:25 io_out[32] 6.93593 
*END

*D_NET *132 0.106544
*CONN
*P io_out[33] O
*I *897:io_out[26] O *D soc_sys
*CAP
1 io_out[33] 0.000410291
2 *897:io_out[26] 0.00103999
3 *132:17 0.00788094
4 *132:15 0.00783396
5 *132:9 0.00439452
6 *132:7 0.00507119
7 *132:7 *133:15 0
8 io_oeb[34] *132:17 0.00895564
9 io_oeb[36] *132:7 0
10 *45:47 *132:7 0.000124967
11 *57:17 *132:17 0.00519856
12 *84:26 *132:17 0.00680229
13 *85:22 *132:17 0.00608204
14 *86:15 *132:15 3.65076e-05
15 *86:23 io_out[33] 0
16 *87:17 *132:9 0.000321128
17 *89:21 *132:9 0.000352018
18 *93:17 *132:15 0
19 *93:27 *132:17 0.0223063
20 *94:17 *132:17 0.0101907
21 *123:9 *132:17 0.000800125
22 *124:9 *132:17 0.00470839
23 *130:9 *132:17 0.004348
24 *130:17 *132:17 0.00477161
25 *131:7 *132:7 0
26 *131:9 *132:9 0.00491502
*RES
1 *897:io_out[26] *132:7 2.5292 
2 *132:7 *132:9 109.245 
3 *132:9 *132:15 1.6498 
4 *132:15 *132:17 57.4028 
5 *132:17 io_out[33] 1.28153 
*END

*D_NET *133 0.060555
*CONN
*P io_out[34] O
*I *897:io_out[27] O *D soc_sys
*CAP
1 io_out[34] 0.0073674
2 *897:io_out[27] 0.000654103
3 *133:23 0.00837387
4 *133:15 0.00166057
5 io_out[34] io_out[35] 0.000194692
6 *133:15 *136:7 0.000637506
7 io_oeb[34] io_out[34] 0.000267479
8 io_oeb[35] io_out[34] 0.00428182
9 *897:io_in[28] io_out[34] 0.00248884
10 *897:io_in[28] *133:23 0.000957026
11 *46:43 *133:15 0.000480774
12 *48:35 *133:23 0.00217116
13 *48:41 *133:15 9.974e-05
14 *50:19 *133:15 0.000424615
15 *51:25 io_out[34] 0.000558588
16 *87:17 io_out[34] 0.00129962
17 *92:9 io_out[34] 0.00292979
18 *92:17 io_out[34] 7.07318e-05
19 *93:19 io_out[34] 0.00198645
20 *94:17 io_out[34] 0.0125142
21 *103:13 *133:15 0.000181926
22 *103:15 *133:23 1.4548e-05
23 *121:9 io_out[34] 0.000460764
24 *122:17 io_out[34] 0.00594318
25 *123:9 *133:23 0.00377947
26 *127:9 io_out[34] 0.000659618
27 *129:45 *133:15 9.65699e-05
28 *132:7 *133:15 0
*RES
1 *897:io_out[27] *133:15 12.6047 
2 *133:15 *133:23 43.9683 
3 *133:23 io_out[34] 34.5138 
*END

*D_NET *134 0.0111132
*CONN
*P io_out[35] O
*I *897:io_out[28] O *D soc_sys
*CAP
1 io_out[35] 0.00360259
2 *897:io_out[28] 0.00360259
3 io_out[35] io_out[36] 4.17587e-05
4 io_oeb[35] io_out[35] 0.00246061
5 io_oeb[36] io_out[35] 7.6323e-05
6 io_out[34] io_out[35] 0.000194692
7 *51:25 io_out[35] 0.000916331
8 *116:21 io_out[35] 0.000211234
9 *122:15 io_out[35] 0
10 *129:45 io_out[35] 7.10991e-06
*RES
1 *897:io_out[28] io_out[35] 11.8984 
*END

*D_NET *135 0.0222143
*CONN
*P io_out[36] O
*I *897:io_out[29] O *D soc_sys
*CAP
1 io_out[36] 0.00384678
2 *897:io_out[29] 0.00384678
3 io_out[36] io_out[37] 0.000344071
4 io_out[36] *136:7 0
5 io_out[36] *136:9 0.00035194
6 io_oeb[36] io_out[36] 0.000489582
7 io_oeb[37] io_out[36] 0
8 io_out[35] io_out[36] 4.17587e-05
9 *897:io_in[26] io_out[36] 0.00136518
10 *897:io_in[28] io_out[36] 0.00473269
11 *897:io_in[29] io_out[36] 0.000514295
12 *897:io_in[30] io_out[36] 1.48556e-05
13 *74:21 io_out[36] 5.66513e-05
14 *109:9 io_out[36] 0.00041352
15 *116:21 io_out[36] 0.00485961
16 *121:9 io_out[36] 0.000389181
17 *122:15 io_out[36] 0.000500404
18 *124:9 io_out[36] 0.000330795
19 *130:9 io_out[36] 0.000116216
*RES
1 *897:io_out[29] io_out[36] 19.2577 
*END

*D_NET *136 0.0594503
*CONN
*P io_out[37] O
*I *897:io_out[30] O *D soc_sys
*CAP
1 io_out[37] 0.00433752
2 *897:io_out[30] 0.000508697
3 *136:9 0.00598297
4 *136:7 0.00215415
5 io_oeb[35] *136:7 7.87237e-05
6 io_oeb[37] io_out[37] 0.0132343
7 io_out[36] io_out[37] 0.000344071
8 io_out[36] *136:7 0
9 io_out[36] *136:9 0.00035194
10 *897:io_in[0] io_out[37] 0
11 *897:io_in[26] *136:9 0.000578338
12 *897:io_in[30] io_out[37] 0.0093362
13 *39:41 io_out[37] 0.000451303
14 *43:37 io_out[37] 0.000554397
15 *48:41 *136:7 9.09637e-05
16 *48:43 io_out[37] 0.000132553
17 *48:43 *136:9 0.000843989
18 *51:25 io_out[37] 0.000359245
19 *51:25 *136:9 0.0036724
20 *74:21 *136:7 0.000726978
21 *74:41 io_out[37] 0.00150038
22 *103:13 *136:7 3.85824e-05
23 *110:9 io_out[37] 0.00207853
24 *110:9 *136:9 0.0020951
25 *113:9 io_out[37] 0.00077022
26 *113:9 *136:9 0.00291512
27 *114:17 io_out[37] 0.000824571
28 *116:21 *136:9 0.000751439
29 *121:9 *136:9 0.00381402
30 *122:15 *136:7 4.80783e-05
31 *122:17 *136:9 0.000237998
32 *133:15 *136:7 0.000637506
*RES
1 *897:io_out[30] *136:7 2.23787 
2 *136:7 *136:9 97.005 
3 *136:9 io_out[37] 26.9777 
*END

*D_NET *141 0.609007
*CONN
*P io_out[7] O
*I *897:io_out[0] O *D soc_sys
*CAP
1 io_out[7] 0.000185477
2 *897:io_out[0] 0.0060494
3 *141:25 0.0180244
4 *141:23 0.017839
5 *141:21 0.0447479
6 *141:19 0.0447607
7 *141:13 0.0423023
8 *141:11 0.0483388
9 *141:11 *142:16 0.0125809
10 *141:11 *143:17 0.000443567
11 *141:11 *143:37 0.000353591
12 *141:13 *898:wbs_adr_i[0] 0.000760313
13 *141:13 *143:39 0
14 *141:13 *544:17 0.00438665
15 *141:13 *549:17 0.0151916
16 *141:13 *552:17 0.00371633
17 *141:13 *558:19 0
18 *141:13 *561:15 0.00664658
19 *141:13 *571:17 0.0029872
20 *141:13 *573:17 0
21 *141:13 *596:15 0.00988142
22 *141:13 *597:15 0.00195906
23 *141:13 *642:21 0.00213485
24 *141:13 *788:11 6.17286e-05
25 *141:13 *790:17 0.00021914
26 *141:13 *792:19 0.00208244
27 *141:13 *795:19 9.40268e-05
28 *141:13 *824:19 0.000301771
29 *141:13 *829:19 0.000202165
30 *141:13 *865:19 0.00111754
31 *141:19 *866:9 1.7635e-05
32 *141:21 *898:wbs_dat_i[3] 0.00245934
33 *141:21 *143:47 0.135789
34 *141:21 *791:21 0
35 *141:21 *792:21 0
36 *141:21 *793:17 0
37 *141:21 *853:11 0.000238056
38 *141:25 *142:30 0.0526544
39 *897:io_in[1] *141:11 0.00210776
40 *24:9 *141:25 0.00259764
41 *26:9 *141:25 0.00678679
42 *65:9 *141:25 0.0928203
43 *66:9 *141:25 0.0221832
44 *69:25 *141:25 0.0014887
45 *104:18 *141:11 0.00110372
46 *113:13 *141:13 0
47 *118:11 *141:11 0.00139179
*RES
1 *897:io_out[0] *141:11 26.6133 
2 *141:11 *141:13 158.611 
3 *141:13 *141:19 2.7325 
4 *141:19 *141:21 1237.28 
5 *141:21 *141:23 2 
6 *141:23 *141:25 1092.91 
7 *141:25 io_out[7] 0.7812 
*END

*D_NET *142 0.767249
*CONN
*P io_out[8] O
*I *897:io_out[1] O *D soc_sys
*CAP
1 io_out[8] 9.18841e-05
2 *897:io_out[1] 0.00855157
3 *142:30 0.020404
4 *142:28 0.0203121
5 *142:26 0.0432733
6 *142:24 0.0433446
7 *142:18 0.0210628
8 *142:16 0.0295431
9 *142:16 *143:17 0.000699019
10 *142:18 *898:wbs_adr_i[0] 0
11 *142:18 *791:19 0.000116754
12 *142:18 *794:19 0.00238937
13 *142:24 *857:9 0
14 *142:24 *890:9 0
15 *142:26 *898:wbs_adr_i[22] 0.000782306
16 *142:26 *898:wbs_adr_i[4] 0.00126602
17 *142:26 *898:wbs_dat_i[27] 0.000439362
18 *142:26 *541:35 0
19 *142:26 *798:13 0
20 *142:26 *808:21 0
21 *142:26 *819:21 0
22 *142:26 *820:21 0
23 *142:26 *835:11 0.000101314
24 *142:26 *845:9 0.00211655
25 *142:26 *883:21 0
26 *897:io_in[27] *142:16 5.99146e-05
27 *897:io_in[28] *142:16 0.000124156
28 *26:9 *142:30 0.0245979
29 *32:25 *142:16 0.000982652
30 *40:37 *142:16 0.000982652
31 *65:13 *142:26 0.133471
32 *65:21 *142:18 0.103787
33 *66:9 *142:30 0.0211131
34 *71:33 *142:30 0.0060697
35 *104:16 *142:16 0.000190183
36 *104:18 *142:16 0.000238796
37 *108:17 *142:30 0.114376
38 *113:13 *142:18 0.100981
39 *113:21 *142:26 0.000317389
40 *118:11 *142:16 0.000228267
41 *141:11 *142:16 0.0125809
42 *141:25 *142:30 0.0526544
*RES
1 *897:io_out[1] *142:16 27.5284 
2 *142:16 *142:18 159.193 
3 *142:18 *142:24 3.4975 
4 *142:24 *142:26 1235.2 
5 *142:26 *142:28 2 
6 *142:28 *142:30 1286.45 
7 *142:30 io_out[8] 0.664667 
*END

*D_NET *143 0.695595
*CONN
*P io_out[9] O
*I *897:io_out[2] O *D soc_sys
*CAP
1 io_out[9] 0.000755127
2 *897:io_out[2] 0.000884252
3 *143:51 0.0520343
4 *143:49 0.0512791
5 *143:47 0.0389394
6 *143:45 0.0390988
7 *143:39 0.0470623
8 *143:37 0.0531203
9 *143:19 0.007374
10 *143:17 0.00204092
11 *143:39 *549:17 0.00140691
12 *143:39 *552:17 0.00501128
13 *143:39 *556:15 0
14 *143:39 *559:21 0
15 *143:39 *561:15 0.00288351
16 *143:39 *571:17 0.0136474
17 *143:39 *597:15 0.044032
18 *143:39 *622:16 0
19 *143:39 *639:16 0
20 *143:39 *788:11 0.00159013
21 *143:39 *824:19 0.000284109
22 *143:39 *826:19 0.00152775
23 *143:45 *850:13 8.27944e-05
24 *143:45 *887:9 5.96734e-05
25 *143:47 *829:9 0.000784267
26 *143:47 *837:9 0.0254077
27 *143:47 *853:11 0.00324544
28 *143:47 *865:21 0
29 io_oeb[36] *143:19 0.000566348
30 *897:io_in[17] *143:19 0.0011428
31 *897:io_in[1] *143:37 1.44646e-05
32 *897:io_in[29] *143:17 3.79971e-05
33 *897:io_in[30] *143:17 0.000209586
34 *897:io_in[7] *143:37 8.14052e-05
35 *897:io_in[8] *143:37 7.19377e-05
36 *31:9 *143:51 0.00578222
37 *32:9 *143:51 0.000656317
38 *39:37 *143:39 0
39 *44:29 *143:19 0.00204191
40 *45:49 *143:19 0.00367709
41 *74:31 *143:19 0.00278576
42 *104:16 *143:17 0.000120133
43 *105:33 *143:51 0.0155025
44 *107:7 *143:17 0
45 *107:25 *143:51 0.132237
46 *108:9 *143:19 0.000155276
47 *112:15 *143:17 0.000675843
48 *141:11 *143:17 0.000443567
49 *141:11 *143:37 0.000353591
50 *141:13 *143:39 0
51 *141:21 *143:47 0.135789
52 *142:16 *143:17 0.000699019
*RES
1 *897:io_out[2] *143:17 4.578 
2 *143:17 *143:19 67.425 
3 *143:19 *143:37 17.4917 
4 *143:37 *143:39 156.979 
5 *143:39 *143:45 5.5375 
6 *143:45 *143:47 1231.76 
7 *143:47 *143:49 2 
8 *143:49 *143:51 1491.47 
9 *143:51 io_out[9] 2.1796 
*END

*D_NET *528 0.442735
*CONN
*P user_clock2 I
*I *892:refclk I *D CF_ADC_SAR12
*CAP
1 user_clock2 0.00147525
2 *892:refclk 0.000269784
3 *528:19 0.0213082
4 *528:17 0.0210384
5 *528:15 0.061478
6 *528:13 0.061478
7 *528:11 0.0253102
8 *528:9 0.0267855
9 *528:15 *754:13 0.0308756
10 *892:VPUMP *528:19 0.0109655
11 *20:17 *528:19 3.26119e-05
12 *31:9 *528:11 0.0118854
13 *33:9 *528:11 0
14 *35:9 *528:11 0
15 *70:18 *528:15 0.169832
*RES
1 user_clock2 *528:9 26.7525 
2 *528:9 *528:11 459.495 
3 *528:11 *528:13 0.5 
4 *528:13 *528:15 259.412 
5 *528:15 *528:17 0.5 
6 *528:17 *528:19 65.5855 
7 *528:19 *892:refclk 5.0329 
*END

*D_NET *529 0.281336
*CONN
*P user_irq[0] O
*I *897:user_irq[0] O *D soc_sys
*CAP
1 user_irq[0] 8.25826e-05
2 *897:user_irq[0] 0.00499183
3 *529:9 0.056703
4 *529:7 0.0566205
5 *529:5 0.00499183
6 *529:9 *530:11 0.154151
7 *529:9 *631:14 0.00379602
*RES
1 *897:user_irq[0] *529:5 86.2425 
2 *529:5 *529:7 0.5 
3 *529:7 *529:9 237.766 
4 *529:9 user_irq[0] 1.8575 
*END

*D_NET *530 0.363177
*CONN
*P user_irq[1] O
*I *897:user_irq[1] O *D soc_sys
*CAP
1 user_irq[1] 8.14153e-05
2 *897:user_irq[1] 9.87351e-05
3 *530:11 0.0231656
4 *530:9 0.0230842
5 *530:7 0.00490729
6 *530:5 0.00500602
7 *530:11 *531:9 0.148254
8 *530:11 *631:14 0.00442857
9 *529:9 *530:11 0.154151
*RES
1 *897:user_irq[1] *530:5 0.7425 
2 *530:5 *530:7 85.785 
3 *530:7 *530:9 0.5 
4 *530:9 *530:11 228.793 
5 *530:11 user_irq[1] 1.9325 
*END

*D_NET *531 0.263979
*CONN
*P user_irq[2] O
*I *897:user_irq[2] O *D soc_sys
*CAP
1 user_irq[2] 5.99008e-05
2 *897:user_irq[2] 0.00482962
3 *531:9 0.0525522
4 *531:7 0.0524923
5 *531:5 0.00482962
6 *531:5 *600:15 0.000549426
7 *531:5 *632:18 0.000411623
8 *530:11 *531:9 0.148254
*RES
1 *897:user_irq[2] *531:5 85.2225 
2 *531:5 *531:7 0.5 
3 *531:7 *531:9 220.228 
4 *531:9 user_irq[2] 1.5875 
*END

*D_NET *540 0.429094
*CONN
*P wb_clk_i I
*I *898:wb_clk_i I *D CF_SRAM_1024x32_wb_wrapper
*I *897:wb_clk_i I *D soc_sys
*CAP
1 wb_clk_i 0.0012972
2 *898:wb_clk_i 8.68555e-05
3 *897:wb_clk_i 0.00681957
4 *540:58 0.00378007
5 *540:56 0.00373968
6 *540:50 0.015496
7 *540:48 0.0156949
8 *540:23 0.0301947
9 *540:21 0.0233751
10 *540:19 0.00471748
11 *540:15 0.00899235
12 *540:13 0.00581744
13 *897:wb_clk_i *897:wb_rst_i 0.00250619
14 *897:wb_clk_i *897:wbs_adr_i[0] 0.00121056
15 *897:wb_clk_i *897:wbs_adr_i[1] 7.86633e-05
16 *897:wb_clk_i *897:wbs_adr_i[2] 0.000646581
17 *897:wb_clk_i *897:wbs_adr_i[3] 0.00793732
18 *897:wb_clk_i *897:wbs_adr_i[4] 8.02886e-05
19 *897:wb_clk_i *897:wbs_adr_i[5] 8.02886e-05
20 *897:wb_clk_i *897:wbs_adr_i[6] 0.000332638
21 *897:wb_clk_i *897:wbs_cyc_i 8.02886e-05
22 *897:wb_clk_i *897:wbs_dat_i[1] 0.000812065
23 *897:wb_clk_i *897:wbs_dat_i[3] 0.000577397
24 *897:wb_clk_i *897:wbs_dat_i[4] 0.000719327
25 *897:wb_clk_i *897:wbs_dat_i[5] 0.000788845
26 *897:wb_clk_i *897:wbs_sel_i[1] 4.21127e-05
27 *897:wb_clk_i *897:wbs_sel_i[2] 8.02886e-05
28 *897:wb_clk_i *897:wbs_sel_i[3] 0.000796366
29 *897:wb_clk_i *897:wbs_stb_i 0.000658008
30 *897:wb_clk_i *897:wbs_we_i 0.000530689
31 *897:wb_clk_i *542:28 0.00938006
32 *897:wb_clk_i *619:8 8.02886e-05
33 *897:wb_clk_i *630:16 0.00132773
34 *897:wb_clk_i *633:8 8.02886e-05
35 *897:wb_clk_i *634:16 0.000885511
36 *897:wb_clk_i *635:8 8.02886e-05
37 *540:13 *541:13 0.00232619
38 *540:19 *541:21 0.000357675
39 *540:19 *541:27 0.0158753
40 *540:19 *542:36 0.000127524
41 *540:19 *640:17 0.00679953
42 *540:19 *646:30 0.0243261
43 *540:23 *635:10 0
44 *540:48 *541:27 0.0004793
45 *540:48 *646:30 0.000496363
46 *540:50 *897:adc_data[4] 0.0103045
47 *540:50 *898:wbs_adr_i[5] 9.97912e-05
48 *540:50 *898:wbs_dat_i[2] 0.00324783
49 *540:50 *898:wbs_sel_i[0] 0.000338868
50 *540:50 *646:22 0.0072153
51 *540:50 *647:31 0.00359671
52 *540:50 *647:33 0.0189468
53 *540:50 *649:17 0.00786726
54 *540:50 *649:25 0.0387567
55 *540:50 *650:35 6.34015e-05
56 *540:50 *650:45 5.84154e-05
57 *540:50 *819:19 0.000232172
58 *540:50 *888:21 0.000158334
59 *540:56 *821:9 4.51693e-05
60 *540:56 *822:13 0.000127124
61 *540:58 *898:wbs_stb_i 0.00195575
62 *540:58 *863:19 3.96284e-05
63 *40:25 *540:50 0.0162667
64 *43:33 *540:19 0.0010735
65 *78:19 *897:wb_clk_i 0.00248423
66 *78:21 *897:wb_clk_i 0.00259157
67 *84:24 *897:wb_clk_i 0.00064361
68 *104:22 *540:50 0.0742572
69 *107:21 *540:50 0.000867226
70 *109:19 *540:19 0.000176658
71 *109:21 *540:58 0.0108278
72 *112:33 *540:50 0.017492
73 *114:27 *540:19 0.000882274
74 *118:43 *540:19 0.00425218
75 *118:43 *540:48 0.000109072
76 *118:43 *540:50 0.000163867
77 *126:20 *897:wb_clk_i 0.00107084
78 *129:45 *897:wb_clk_i 0.00229023
*RES
1 wb_clk_i *540:13 34.18 
2 *540:13 *540:15 80.0475 
3 *540:15 *540:19 38.6735 
4 *540:19 *540:21 0.5 
5 *540:21 *540:23 63.346 
6 *540:23 *897:wb_clk_i 41.4681 
7 *540:19 *540:48 2.20587 
8 *540:48 *540:50 118.989 
9 *540:50 *540:56 4.0075 
10 *540:56 *540:58 98.43 
11 *540:58 *898:wb_clk_i 3.245 
*END

*D_NET *541 0.342441
*CONN
*P wb_rst_i I
*I *897:wb_rst_i I *D soc_sys
*I *898:wb_rst_i I *D CF_SRAM_1024x32_wb_wrapper
*CAP
1 wb_rst_i 0.00135878
2 *897:wb_rst_i 0.00237619
3 *898:wb_rst_i 0.000169456
4 *541:45 0.0255411
5 *541:35 0.00340063
6 *541:33 0.00324092
7 *541:27 0.0204357
8 *541:25 0.0205965
9 *541:21 0.0250367
10 *541:15 0.00630736
11 *541:13 0.00596489
12 *897:wb_rst_i *897:wbs_adr_i[0] 0.00296519
13 *897:wb_rst_i *542:28 0.00444568
14 *898:wb_rst_i *788:11 0
15 *541:21 *542:36 0.00912488
16 *541:21 *646:30 0.00847912
17 *541:27 *897:adc_data[4] 0.00763083
18 *541:27 *897:adc_data[6] 0.0163141
19 *541:27 *897:adc_eof 0.0250825
20 *541:27 *898:wbs_adr_i[6] 0.00123657
21 *541:27 *898:wbs_cyc_i 0.000967946
22 *541:27 *646:30 0.0113046
23 *541:27 *651:41 0.0148099
24 *541:27 *655:33 0.0396487
25 *541:27 *656:29 0.00943213
26 *541:27 *808:19 0.00485305
27 *541:27 *888:21 0.000442567
28 *541:33 *898:wbs_adr_i[3] 4.05129e-06
29 *541:33 *806:17 2.53191e-06
30 *541:33 *828:15 1.92979e-05
31 *541:35 *898:wbs_cyc_i 0.00217574
32 *541:35 *808:21 7.65518e-05
33 *541:35 *819:21 0.00974434
34 *541:45 *897:wbs_adr_i[1] 0.00122075
35 *541:45 *554:17 0
36 *541:45 *630:18 0
37 *897:wb_clk_i *897:wb_rst_i 0.00250619
38 *43:33 *541:27 0.0226983
39 *51:11 *897:wb_rst_i 0.0001385
40 *78:19 *897:wb_rst_i 0.000445611
41 *84:24 *897:wb_rst_i 0.00161266
42 *85:20 *897:wb_rst_i 8.0911e-05
43 *109:21 *541:27 0.00418892
44 *114:27 *541:15 0
45 *118:43 *541:21 0.0015053
46 *118:43 *541:27 0.00314976
47 *126:20 *897:wb_rst_i 0.00107345
48 *129:45 *897:wb_rst_i 0.000255388
49 *129:49 *897:wb_rst_i 0.00133849
50 *142:26 *541:35 0
51 *540:13 *541:13 0.00232619
52 *540:19 *541:21 0.000357675
53 *540:19 *541:27 0.0158753
54 *540:48 *541:27 0.0004793
*RES
1 wb_rst_i *541:13 34.96 
2 *541:13 *541:15 81.3225 
3 *541:15 *541:21 14.6433 
4 *541:21 *541:25 0.7964 
5 *541:25 *541:27 145.035 
6 *541:27 *541:33 2.7325 
7 *541:33 *541:35 90.495 
8 *541:35 *898:wb_rst_i 4.22 
9 *541:21 *541:45 63.0015 
10 *541:45 *897:wb_rst_i 15.7446 
*END

*D_NET *542 0.125525
*CONN
*P wbs_ack_o O
*I *897:wbs_ack_o O *D soc_sys
*CAP
1 wbs_ack_o 0.00147174
2 *897:wbs_ack_o 0.00422974
3 *542:38 0.00461046
4 *542:36 0.00639079
5 *542:30 0.0272251
6 *542:28 0.0282028
7 *542:28 *897:wbs_adr_i[0] 0.000410089
8 *542:28 *608:25 0.000919384
9 *542:28 *630:16 0.00292742
10 *542:36 *644:17 0.0038992
11 *542:36 *646:30 0.00246755
12 *542:36 *649:25 0.00736214
13 *542:36 *650:45 0.000974729
14 *897:io_in[1] *542:38 0.000110459
15 *897:wb_clk_i *542:28 0.00938006
16 *897:wb_rst_i *542:28 0.00444568
17 *31:23 *542:38 0
18 *32:25 *542:38 0.000693095
19 *35:25 *542:38 0
20 *36:21 *542:38 0
21 *40:35 *542:36 0.000257259
22 *56:15 *542:28 9.88725e-06
23 *76:57 *542:28 0
24 *78:19 *542:28 0.000299191
25 *85:20 *542:28 0.00114789
26 *104:22 *542:36 0.00193201
27 *109:19 *542:36 0.00228426
28 *112:31 *542:36 0.000573635
29 *118:43 *542:36 0.00284457
30 *126:20 *542:28 0.000129766
31 *129:49 *542:28 0.00107344
32 *540:19 *542:36 0.000127524
33 *541:21 *542:36 0.00912488
*RES
1 *897:wbs_ack_o *542:28 23.9089 
2 *542:28 *542:30 63.0015 
3 *542:30 *542:36 26.2966 
4 *542:36 *542:38 60.675 
5 *542:38 wbs_ack_o 26.9625 
*END

*D_NET *543 0.0908414
*CONN
*P wbs_adr_i[0] I
*I *897:wbs_adr_i[0] I *D soc_sys
*CAP
1 wbs_adr_i[0] 0.00489552
2 *897:wbs_adr_i[0] 0.00217436
3 *543:15 0.0288552
4 *543:13 0.0315764
5 *897:wbs_adr_i[0] *897:wbs_dat_i[0] 8.02886e-05
6 *897:wbs_adr_i[0] *897:wbs_dat_i[1] 0.000911398
7 *897:wbs_adr_i[0] *576:13 4.73255e-05
8 *897:wbs_adr_i[0] *608:25 8.24216e-05
9 *897:wbs_adr_i[0] *630:16 0.000940348
10 *543:13 wbs_dat_o[0] 0.00376884
11 *543:13 *554:13 2.89059e-05
12 *543:13 *576:11 0
13 *543:13 *587:13 0.0015469
14 *543:13 *602:13 0
15 *543:13 *643:13 0.00376833
16 *543:13 *645:11 0
17 *543:15 *604:9 0.000441859
18 *543:15 *619:10 0.00490453
19 *543:15 *641:15 0
20 *897:wb_clk_i *897:wbs_adr_i[0] 0.00121056
21 *897:wb_rst_i *897:wbs_adr_i[0] 0.00296519
22 *75:28 *543:15 0.00135426
23 *78:19 *897:wbs_adr_i[0] 0.000611668
24 *129:45 *897:wbs_adr_i[0] 0.000267022
25 *542:28 *897:wbs_adr_i[0] 0.000410089
*RES
1 wbs_adr_i[0] *543:13 22.8972 
2 *543:13 *543:15 76.6105 
3 *543:15 *897:wbs_adr_i[0] 11.4025 
*END

*D_NET *544 0.092338
*CONN
*P wbs_adr_i[10] I
*I *897:wbs_adr_i[10] I *D soc_sys
*CAP
1 wbs_adr_i[10] 0.00106797
2 *897:wbs_adr_i[10] 0.00018417
3 *544:19 0.0238768
4 *544:17 0.0297122
5 *544:11 0.00847805
6 *544:9 0.00352647
7 *544:9 *601:13 0.000116216
8 *544:9 *607:15 0.00186605
9 *544:11 *601:13 0.000543419
10 *544:11 *607:15 0.00157189
11 *544:17 *558:19 0.000232051
12 *544:17 *573:17 0.0135738
13 *544:17 *583:17 0.00296716
14 *78:21 *897:wbs_adr_i[10] 0.00023514
15 *141:13 *544:17 0.00438665
*RES
1 wbs_adr_i[10] *544:9 26.2425 
2 *544:9 *544:11 54.045 
3 *544:11 *544:17 30.5501 
4 *544:17 *544:19 64.2073 
5 *544:19 *897:wbs_adr_i[10] 1.6498 
*END

*D_NET *545 0.0903551
*CONN
*P wbs_adr_i[11] I
*I *897:wbs_adr_i[11] I *D soc_sys
*CAP
1 wbs_adr_i[11] 0.0110831
2 *897:wbs_adr_i[11] 2.74782e-05
3 *545:15 0.0291035
4 *545:13 0.0401591
5 *545:13 *546:21 0
6 *545:13 *580:17 0.00918752
7 *545:13 *591:19 0.000539921
8 *545:13 *605:13 0
9 *545:13 *643:15 0.000232432
10 *44:21 *545:15 0
11 *78:21 *897:wbs_adr_i[11] 2.20023e-05
*RES
1 wbs_adr_i[11] *545:13 46.8815 
2 *545:13 *545:15 75.3185 
3 *545:15 *897:wbs_adr_i[11] 1.06713 
*END

*D_NET *546 0.0956031
*CONN
*P wbs_adr_i[12] I
*I *897:wbs_adr_i[12] I *D soc_sys
*CAP
1 wbs_adr_i[12] 0.0025091
2 *897:wbs_adr_i[12] 2.58764e-05
3 *546:23 0.0282796
4 *546:21 0.0362395
5 *546:17 0.0104949
6 *897:wbs_adr_i[12] *611:12 8.02886e-05
7 *546:17 *548:9 0
8 *546:17 *568:11 0.00130132
9 *546:17 *577:13 0
10 *546:17 *579:19 0.00144234
11 *546:17 *581:9 0
12 *546:21 *560:11 0.00325048
13 *546:21 *584:19 0.00588714
14 *546:21 *605:13 0.00604955
15 *546:21 *611:20 0
16 *78:21 *897:wbs_adr_i[12] 4.29667e-05
17 *545:13 *546:21 0
*RES
1 wbs_adr_i[12] *546:17 25.3953 
2 *546:17 *546:21 29.9918 
3 *546:21 *546:23 74.6295 
4 *546:23 *897:wbs_adr_i[12] 1.1254 
*END

*D_NET *547 0.0973913
*CONN
*P wbs_adr_i[13] I
*I *897:wbs_adr_i[13] I *D soc_sys
*CAP
1 wbs_adr_i[13] 0.00258187
2 *897:wbs_adr_i[13] 3.98041e-05
3 *547:15 0.0262893
4 *547:13 0.0358328
5 *547:9 0.0121652
6 *897:wbs_adr_i[13] *897:wbs_dat_i[13] 8.02886e-05
7 *547:9 wbs_dat_o[12] 0
8 *547:13 *550:19 0.0188957
9 *547:13 *578:19 0
10 *547:13 *589:11 0
11 *547:13 *635:16 0.00150624
*RES
1 wbs_adr_i[13] *547:9 45.7175 
2 *547:9 *547:13 36.7507 
3 *547:13 *547:15 70.0644 
4 *547:15 *897:wbs_adr_i[13] 1.1254 
*END

*D_NET *548 0.101114
*CONN
*P wbs_adr_i[14] I
*I *897:wbs_adr_i[14] I *D soc_sys
*CAP
1 wbs_adr_i[14] 0.00172301
2 *897:wbs_adr_i[14] 4.44474e-05
3 *548:15 0.0286513
4 *548:13 0.0392303
5 *548:9 0.0123465
6 *548:13 *566:11 0
7 *548:13 *579:23 0
8 *548:13 *586:13 0.0173661
9 *548:13 *604:13 0.00170906
10 *548:13 *606:13 0
11 *548:13 *613:16 0
12 *548:13 *620:14 0
13 *78:21 *897:wbs_adr_i[14] 4.29667e-05
14 *546:17 *548:9 0
*RES
1 wbs_adr_i[14] *548:9 30.4175 
2 *548:9 *548:13 38.6735 
3 *548:13 *548:15 72.6484 
4 *548:15 *897:wbs_adr_i[14] 1.1254 
*END

*D_NET *549 0.126967
*CONN
*P wbs_adr_i[15] I
*I *897:wbs_adr_i[15] I *D soc_sys
*CAP
1 wbs_adr_i[15] 0.00154341
2 *897:wbs_adr_i[15] 0.000165679
3 *549:19 0.0162963
4 *549:17 0.0216358
5 *549:11 0.00845374
6 *549:9 0.00449198
7 *897:wbs_adr_i[15] *897:wbs_dat_i[15] 0.000342383
8 *549:9 *568:21 0
9 *549:17 *552:17 0.0219294
10 *549:17 *571:17 4.53852e-05
11 *549:19 *582:15 0.0354641
12 *141:13 *549:17 0.0151916
13 *143:39 *549:17 0.00140691
*RES
1 wbs_adr_i[15] *549:9 26.7525 
2 *549:9 *549:11 50.475 
3 *549:11 *549:17 40.4554 
4 *549:17 *549:19 64.8103 
5 *549:19 *897:wbs_adr_i[15] 1.53327 
*END

*D_NET *550 0.111744
*CONN
*P wbs_adr_i[16] I
*I *897:wbs_adr_i[16] I *D soc_sys
*CAP
1 wbs_adr_i[16] 0.00283151
2 *897:wbs_adr_i[16] 2.74782e-05
3 *550:21 0.0266098
4 *550:19 0.0353335
5 *550:15 0.0115826
6 *550:15 wbs_dat_o[16] 0
7 *550:15 *579:19 0.000698924
8 *550:15 *583:9 0
9 *550:15 *583:11 0
10 *550:15 *604:15 0.000109931
11 *550:15 *614:24 0
12 *550:19 *589:11 0
13 *550:19 *592:11 0.0156326
14 *550:19 *600:11 0
15 *550:19 *617:16 0
16 *78:21 *897:wbs_adr_i[16] 2.20023e-05
17 *547:13 *550:19 0.0188957
*RES
1 wbs_adr_i[16] *550:15 47.416 
2 *550:15 *550:19 41.1207 
3 *550:19 *550:21 70.1505 
4 *550:21 *897:wbs_adr_i[16] 1.06713 
*END

*D_NET *551 0.106925
*CONN
*P wbs_adr_i[17] I
*I *897:wbs_adr_i[17] I *D soc_sys
*CAP
1 wbs_adr_i[17] 0.00485882
2 *897:wbs_adr_i[17] 4.44474e-05
3 *551:21 0.0270187
4 *551:19 0.035237
5 *551:15 0.0131216
6 *551:15 wbs_dat_o[18] 0
7 *551:15 wbs_dat_o[19] 0.00326056
8 *551:15 wbs_dat_o[21] 0
9 *551:15 *557:7 0.00169115
10 *551:15 *579:19 0.000268082
11 *551:15 *584:15 0.00132441
12 *551:15 *585:11 0.000685344
13 *551:19 *567:11 0
14 *551:19 *612:16 0
15 *551:19 *613:16 0.0155595
16 *551:19 *617:16 0
17 *551:19 *620:14 0.00381296
18 *43:13 *551:21 0
19 *78:21 *897:wbs_adr_i[17] 4.29667e-05
*RES
1 wbs_adr_i[17] *551:15 48.0248 
2 *551:15 *551:19 33.4295 
3 *551:19 *551:21 71.7871 
4 *551:21 *897:wbs_adr_i[17] 1.1254 
*END

*D_NET *552 0.119105
*CONN
*P wbs_adr_i[18] I
*I *897:wbs_adr_i[18] I *D soc_sys
*CAP
1 wbs_adr_i[18] 0.00153738
2 *897:wbs_adr_i[18] 4.44474e-05
3 *552:19 0.0240102
4 *552:17 0.0301042
5 *552:11 0.00905891
6 *552:9 0.00445786
7 *552:9 wbs_dat_o[17] 0
8 *552:9 *579:19 0
9 *552:11 *605:15 0.000439724
10 *552:17 *561:15 0.0187524
11 *78:21 *897:wbs_adr_i[18] 4.29667e-05
12 *141:13 *552:17 0.00371633
13 *143:39 *552:17 0.00501128
14 *549:17 *552:17 0.0219294
*RES
1 wbs_adr_i[18] *552:9 26.7525 
2 *552:9 *552:11 49.965 
3 *552:11 *552:17 46.8647 
4 *552:17 *552:19 64.8964 
5 *552:19 *897:wbs_adr_i[18] 1.1254 
*END

*D_NET *553 0.113281
*CONN
*P wbs_adr_i[19] I
*I *897:wbs_adr_i[19] I *D soc_sys
*CAP
1 wbs_adr_i[19] 0.00200958
2 *897:wbs_adr_i[19] 4.44474e-05
3 *553:15 0.0259692
4 *553:13 0.0379453
5 *553:7 0.0140301
6 *553:7 *585:13 0.00244109
7 *553:13 *555:11 0
8 *553:13 *578:19 0.00189394
9 *553:13 *589:11 0.0287055
10 *553:13 *637:16 0.000198519
11 *553:13 *638:16 0
12 *553:15 *586:15 0
13 *78:21 *897:wbs_adr_i[19] 4.29667e-05
*RES
1 wbs_adr_i[19] *553:7 49.8075 
2 *553:7 *553:13 48.9623 
3 *553:13 *553:15 69.2892 
4 *553:15 *897:wbs_adr_i[19] 1.1254 
*END

*D_NET *554 0.079635
*CONN
*P wbs_adr_i[1] I
*I *897:wbs_adr_i[1] I *D soc_sys
*CAP
1 wbs_adr_i[1] 0.0016701
2 *897:wbs_adr_i[1] 0.011301
3 *554:17 0.0269114
4 *554:13 0.0172805
5 *897:wbs_adr_i[1] *897:wbs_dat_i[1] 0.000247891
6 *554:13 wbs_dat_o[0] 0.000360442
7 *554:13 wbs_dat_o[1] 0.00608421
8 *554:13 *576:11 0.000267358
9 *554:13 *587:13 0.00501052
10 *554:13 *640:9 0
11 *554:13 *643:13 0.00088826
12 *554:17 *570:7 0.00134033
13 *897:wb_clk_i *897:wbs_adr_i[1] 7.86633e-05
14 *78:19 *897:wbs_adr_i[1] 4.10987e-05
15 *129:45 *897:wbs_adr_i[1] 0.00690351
16 *541:45 *897:wbs_adr_i[1] 0.00122075
17 *541:45 *554:17 0
18 *543:13 *554:13 2.89059e-05
*RES
1 wbs_adr_i[1] *554:13 15.3022 
2 *554:13 *554:17 40.7107 
3 *554:17 *897:wbs_adr_i[1] 38.3223 
*END

*D_NET *555 0.115491
*CONN
*P wbs_adr_i[20] I
*I *897:wbs_adr_i[20] I *D soc_sys
*CAP
1 wbs_adr_i[20] 4.08978e-05
2 *897:wbs_adr_i[20] 7.55007e-05
3 *555:15 0.025674
4 *555:13 0.0255985
5 *555:11 0.013042
6 *555:9 0.013042
7 *555:7 0.00308846
8 *555:5 0.00312935
9 *555:7 wbs_dat_o[18] 0
10 *555:7 *606:15 0.000102302
11 *555:11 *577:21 0.000608859
12 *555:11 *588:21 0.0307732
13 *555:11 *589:11 0
14 *555:11 *638:16 0.000230735
15 *78:21 *897:wbs_adr_i[20] 8.56708e-05
16 *553:13 *555:11 0
*RES
1 wbs_adr_i[20] *555:5 0.7425 
2 *555:5 *555:7 53.655 
3 *555:7 *555:9 0.5 
4 *555:9 *555:11 50.0017 
5 *555:11 *555:13 0.5 
6 *555:13 *555:15 68.514 
7 *555:15 *897:wbs_adr_i[20] 1.24193 
*END

*D_NET *556 0.146101
*CONN
*P wbs_adr_i[21] I
*I *897:wbs_adr_i[21] I *D soc_sys
*CAP
1 wbs_adr_i[21] 0.00154177
2 *897:wbs_adr_i[21] 0.000122874
3 *556:19 0.030612
4 *556:17 0.0304892
5 *556:15 0.00795239
6 *556:13 0.0105697
7 *556:9 0.00415906
8 *556:9 wbs_dat_o[20] 0
9 *556:9 *588:15 0
10 *556:13 wbs_dat_o[20] 0
11 *556:13 *588:15 0
12 *556:15 *590:15 0.0315758
13 *556:15 *607:21 0.00171057
14 *556:15 *622:16 0.0251276
15 *556:15 *639:16 0.00201737
16 *556:19 *620:10 0
17 *39:37 *556:15 0.00012423
18 *78:21 *897:wbs_adr_i[21] 9.83877e-05
19 *143:39 *556:15 0
*RES
1 wbs_adr_i[21] *556:9 26.7525 
2 *556:9 *556:13 44.855 
3 *556:13 *556:15 51.3418 
4 *556:15 *556:17 0.5 
5 *556:17 *556:19 65.8439 
6 *556:19 *897:wbs_adr_i[21] 1.3002 
*END

*D_NET *557 0.144187
*CONN
*P wbs_adr_i[22] I
*I *897:wbs_adr_i[22] I *D soc_sys
*CAP
1 wbs_adr_i[22] 4.08978e-05
2 *897:wbs_adr_i[22] 4.44474e-05
3 *557:15 0.025225
4 *557:13 0.0251805
5 *557:11 0.00697444
6 *557:9 0.00697444
7 *557:7 0.00280791
8 *557:5 0.00284881
9 *557:11 *577:21 0
10 *557:11 *582:13 0.0159488
11 *557:11 *593:15 0.0309304
12 *557:11 *618:16 0
13 *557:11 *626:14 0.0201417
14 *31:21 *557:11 0.00532785
15 *66:13 *557:11 7.67864e-06
16 *78:21 *897:wbs_adr_i[22] 4.29667e-05
17 *551:15 *557:7 0.00169115
*RES
1 wbs_adr_i[22] *557:5 0.7425 
2 *557:5 *557:7 58.755 
3 *557:7 *557:9 0.5 
4 *557:9 *557:11 53.789 
5 *557:11 *557:13 0.5 
6 *557:13 *557:15 67.5665 
7 *557:15 *897:wbs_adr_i[22] 1.1254 
*END

*D_NET *558 0.141931
*CONN
*P wbs_adr_i[23] I
*I *897:wbs_adr_i[23] I *D soc_sys
*CAP
1 wbs_adr_i[23] 0.000151527
2 *897:wbs_adr_i[23] 1.71572e-05
3 *558:23 0.0278733
4 *558:21 0.0278562
5 *558:19 0.00941265
6 *558:17 0.0105694
7 *558:11 0.0041262
8 *558:9 0.00312093
9 *897:wbs_adr_i[23] *623:12 4.21127e-05
10 *558:11 wbs_dat_o[21] 0.00211472
11 *558:19 *583:17 0.0180319
12 *558:19 *596:15 0.028405
13 *558:23 *623:14 0
14 *78:21 *897:wbs_adr_i[23] 2.20023e-05
15 *113:13 *558:19 0.00995552
16 *141:13 *558:19 0
17 *544:17 *558:19 0.000232051
*RES
1 wbs_adr_i[23] *558:9 2.8275 
2 *558:9 *558:11 59.91 
3 *558:11 *558:17 19.28 
4 *558:17 *558:19 55.4787 
5 *558:19 *558:21 0.5 
6 *558:21 *558:23 64.1212 
7 *558:23 *897:wbs_adr_i[23] 1.06713 
*END

*D_NET *559 0.132978
*CONN
*P wbs_adr_i[24] I
*I *897:wbs_adr_i[24] I *D soc_sys
*CAP
1 wbs_adr_i[24] 0.000142823
2 *897:wbs_adr_i[24] 3.98041e-05
3 *559:23 0.015827
4 *559:21 0.0174869
5 *559:15 0.00559943
6 *559:13 0.00389971
7 *559:11 0.0128115
8 *559:9 0.0129543
9 *897:wbs_adr_i[24] *897:wbs_dat_i[24] 8.02886e-05
10 *559:9 *592:9 0
11 *559:9 *618:18 0
12 *559:11 wbs_dat_o[22] 0.0017719
13 *559:11 wbs_dat_o[26] 0.00873151
14 *559:11 *591:17 0.000307293
15 *559:11 *595:17 0
16 *559:11 *631:14 0.0122664
17 *559:21 *622:16 0.000448818
18 *559:23 *592:15 0
19 *559:23 *624:10 0.0360663
20 *39:37 *559:21 0.00454362
21 *143:39 *559:21 0
*RES
1 wbs_adr_i[24] *559:9 3.0575 
2 *559:9 *559:11 50.4387 
3 *559:11 *559:13 0.5 
4 *559:13 *559:15 67.425 
5 *559:15 *559:21 7.9426 
6 *559:21 *559:23 65.93 
7 *559:23 *897:wbs_adr_i[24] 1.1254 
*END

*D_NET *560 0.15439
*CONN
*P wbs_adr_i[25] I
*I *897:wbs_adr_i[25] I *D soc_sys
*CAP
1 wbs_adr_i[25] 0.00108271
2 *897:wbs_adr_i[25] 4.44474e-05
3 *560:15 0.0191192
4 *560:13 0.0190747
5 *560:11 0.0116752
6 *560:9 0.0127579
7 *560:9 *591:17 0
8 *560:11 *584:19 0.018292
9 *560:11 *591:19 0
10 *560:11 *599:11 0.0321266
11 *560:11 *628:18 0
12 *560:15 *593:19 0.0369233
13 *78:21 *897:wbs_adr_i[25] 4.29667e-05
14 *546:21 *560:11 0.00325048
*RES
1 wbs_adr_i[25] *560:9 19.0325 
2 *560:9 *560:11 59.3243 
3 *560:11 *560:13 0.5 
4 *560:13 *560:15 74.5433 
5 *560:15 *897:wbs_adr_i[25] 1.1254 
*END

*D_NET *561 0.157362
*CONN
*P wbs_adr_i[26] I
*I *897:wbs_adr_i[26] I *D soc_sys
*CAP
1 wbs_adr_i[26] 0.00152312
2 *897:wbs_adr_i[26] 0.000405987
3 *561:19 0.0159317
4 *561:17 0.0155257
5 *561:15 0.00848296
6 *561:13 0.0114197
7 *561:9 0.00445982
8 *561:15 *597:15 0.035331
9 *561:19 *625:10 0.0355688
10 *78:21 *897:wbs_adr_i[26] 0.000430629
11 *141:13 *561:15 0.00664658
12 *143:39 *561:15 0.00288351
13 *552:17 *561:15 0.0187524
*RES
1 wbs_adr_i[26] *561:9 26.2425 
2 *561:9 *561:13 49.955 
3 *561:13 *561:15 60.1983 
4 *561:15 *561:17 0.5 
5 *561:17 *561:19 64.9825 
6 *561:19 *897:wbs_adr_i[26] 2.23247 
*END

*D_NET *562 0.158823
*CONN
*P wbs_adr_i[27] I
*I *897:wbs_adr_i[27] I *D soc_sys
*CAP
1 wbs_adr_i[27] 0.0013929
2 *897:wbs_adr_i[27] 0.000371273
3 *562:15 0.0191052
4 *562:13 0.0187339
5 *562:11 0.0138385
6 *562:9 0.0152313
7 *562:11 *563:15 0
8 *562:11 *584:19 0
9 *562:11 *616:16 0.0148391
10 *562:11 *628:18 0.0380253
11 *562:15 *626:10 0.0368454
12 *78:21 *897:wbs_adr_i[27] 0.000440034
*RES
1 wbs_adr_i[27] *562:9 24.4775 
2 *562:9 *562:11 61.8881 
3 *562:11 *562:13 0.5 
4 *562:13 *562:15 73.682 
5 *562:15 *897:wbs_adr_i[27] 2.23247 
*END

*D_NET *563 0.124865
*CONN
*P wbs_adr_i[28] I
*I *897:wbs_adr_i[28] I *D soc_sys
*CAP
1 wbs_adr_i[28] 0.00167728
2 *897:wbs_adr_i[28] 3.98041e-05
3 *563:19 0.0271362
4 *563:17 0.0270964
5 *563:15 0.020462
6 *563:13 0.0221393
7 *897:wbs_adr_i[28] *718:15 8.02886e-05
8 *563:13 wbs_dat_o[25] 0
9 *563:13 *595:15 0
10 *563:15 *566:11 0
11 *563:15 *616:16 0
12 *563:15 *621:14 0.026137
13 *563:15 *628:18 0
14 *563:19 *628:14 0
15 *563:19 *709:17 9.66603e-05
16 *562:11 *563:15 0
*RES
1 wbs_adr_i[28] *563:13 29.4425 
2 *563:13 *563:15 65.4423 
3 *563:15 *563:17 0.5 
4 *563:17 *563:19 72.9068 
5 *563:19 *897:wbs_adr_i[28] 1.1254 
*END

*D_NET *564 0.12974
*CONN
*P wbs_adr_i[29] I
*I *897:wbs_adr_i[29] I *D soc_sys
*CAP
1 wbs_adr_i[29] 0.00252301
2 *897:wbs_adr_i[29] 1.42417e-05
3 *564:15 0.0266502
4 *564:13 0.0266359
5 *564:11 0.0203432
6 *564:9 0.0228663
7 *897:wbs_adr_i[29] *897:wbs_dat_i[29] 4.21127e-05
8 *897:wbs_adr_i[29] *718:15 4.21127e-05
9 *564:9 wbs_dat_o[28] 0
10 *564:11 *592:11 0.0306225
11 *564:11 *600:11 0
12 *564:11 *617:16 0
13 *564:11 *632:22 0
14 *564:15 *597:19 0
*RES
1 wbs_adr_i[29] *564:9 43.6775 
2 *564:9 *564:11 67.3069 
3 *564:11 *564:13 0.5 
4 *564:13 *564:15 70.3228 
5 *564:15 *897:wbs_adr_i[29] 1.06713 
*END

*D_NET *565 0.0823423
*CONN
*P wbs_adr_i[2] I
*I *897:wbs_adr_i[2] I *D soc_sys
*CAP
1 wbs_adr_i[2] 0.0015492
2 *897:wbs_adr_i[2] 0.000180707
3 *565:15 0.0252247
4 *565:13 0.0265932
5 *565:13 wbs_dat_o[1] 0.0069808
6 *565:13 *598:15 0.000184154
7 *565:13 *641:13 0.00785166
8 *565:13 *643:13 0.000374599
9 *565:15 *572:13 0.000309295
10 *565:15 *641:15 0.00523286
11 *897:wb_clk_i *897:wbs_adr_i[2] 0.000646581
12 *78:19 *897:wbs_adr_i[2] 0.000350129
13 *105:27 *565:15 0.00686445
*RES
1 wbs_adr_i[2] *565:13 15.6858 
2 *565:13 *565:15 77.3857 
3 *565:15 *897:wbs_adr_i[2] 1.9994 
*END

*D_NET *566 0.12259
*CONN
*P wbs_adr_i[30] I
*I *897:wbs_adr_i[30] I *D soc_sys
*CAP
1 wbs_adr_i[30] 0.00196976
2 *897:wbs_adr_i[30] 2.12332e-05
3 *566:15 0.0268039
4 *566:13 0.0267827
5 *566:11 0.0223309
6 *566:9 0.0243006
7 *897:wbs_adr_i[30] *676:23 8.02886e-05
8 *897:wbs_adr_i[30] *718:15 8.02886e-05
9 *566:9 *599:9 0
10 *566:11 *567:11 0
11 *566:11 *586:13 0
12 *566:11 *620:14 0.0200849
13 *566:11 *621:14 0
14 *566:15 *897:wbs_dat_i[30] 0.000129766
15 *566:15 *599:15 0
16 *566:15 *676:25 5.20787e-06
17 *548:13 *566:11 0
18 *563:15 *566:11 0
*RES
1 wbs_adr_i[30] *566:9 34.1675 
2 *566:9 *566:11 68.9966 
3 *566:11 *566:13 0.5 
4 *566:13 *566:15 72.0455 
5 *566:15 *897:wbs_adr_i[30] 1.1254 
*END

*D_NET *567 0.140732
*CONN
*P wbs_adr_i[31] I
*I *897:wbs_adr_i[31] I *D soc_sys
*CAP
1 wbs_adr_i[31] 0.00228351
2 *897:wbs_adr_i[31] 1.42417e-05
3 *567:15 0.0242489
4 *567:13 0.0242346
5 *567:11 0.018263
6 *567:9 0.0205465
7 *897:wbs_adr_i[31] *676:23 4.21127e-05
8 *897:wbs_adr_i[31] *718:15 4.21127e-05
9 *567:11 *617:16 0.000546433
10 *567:11 *620:14 0
11 *567:11 *632:22 0.0455438
12 *567:15 *632:18 0.00496692
13 *551:19 *567:11 0
14 *566:11 *567:11 0
*RES
1 wbs_adr_i[31] *567:9 39.0875 
2 *567:9 *567:11 71.2107 
3 *567:11 *567:13 0.5 
4 *567:13 *567:15 71.1841 
5 *567:15 *897:wbs_adr_i[31] 1.06713 
*END

*D_NET *568 0.108855
*CONN
*P wbs_adr_i[3] I
*I *897:wbs_adr_i[3] I *D soc_sys
*CAP
1 wbs_adr_i[3] 9.59418e-05
2 *897:wbs_adr_i[3] 0.0025757
3 *568:23 0.0199848
4 *568:21 0.0174595
5 *568:11 0.00964264
6 *568:9 0.00968811
7 *897:wbs_adr_i[3] *897:wbs_adr_i[6] 0.000251006
8 *897:wbs_adr_i[3] *897:wbs_dat_i[4] 0.000782373
9 *897:wbs_adr_i[3] *897:wbs_dat_i[5] 0.00168708
10 *897:wbs_adr_i[3] *634:16 0.00122857
11 *568:11 wbs_dat_o[14] 0.000301236
12 *568:11 wbs_dat_o[3] 0
13 *568:11 *578:11 0.00027675
14 *568:11 *579:19 0.000378998
15 *568:11 *601:11 0.00481248
16 *568:11 *642:13 0.000107704
17 *568:21 wbs_dat_o[14] 4.60198e-05
18 *568:21 *579:19 1.91843e-05
19 *568:21 *582:7 2.99518e-06
20 *568:23 *571:19 0.0141348
21 *568:23 *582:7 0.000659586
22 *568:23 *635:10 0.015159
23 *897:wb_clk_i *897:wbs_adr_i[3] 0.00793732
24 *78:21 *897:wbs_adr_i[3] 0.000322244
25 *546:17 *568:11 0.00130132
26 *549:9 *568:21 0
*RES
1 wbs_adr_i[3] *568:9 3.23 
2 *568:9 *568:11 166.05 
3 *568:11 *568:21 3.55463 
4 *568:21 *568:23 77.4719 
5 *568:23 *897:wbs_adr_i[3] 13.6097 
*END

*D_NET *569 0.0888439
*CONN
*P wbs_adr_i[4] I
*I *897:wbs_adr_i[4] I *D soc_sys
*CAP
1 wbs_adr_i[4] 0.00153813
2 *897:wbs_adr_i[4] 2.12332e-05
3 *569:19 0.0259966
4 *569:17 0.0280286
5 *569:13 0.00430895
6 *569:9 0.00379379
7 *569:9 *633:20 0
8 *569:9 *643:13 0
9 *569:19 *897:wbs_dat_i[4] 5.97021e-05
10 *569:19 *602:15 0
11 *897:wb_clk_i *897:wbs_adr_i[4] 8.02886e-05
12 *33:21 *569:17 0.0124704
13 *38:17 *569:17 0.0124659
14 *70:16 *569:19 0
15 *78:21 *897:wbs_adr_i[4] 8.02886e-05
*RES
1 wbs_adr_i[4] *569:9 26.7525 
2 *569:9 *569:13 40.775 
3 *569:13 *569:17 19.0959 
4 *569:17 *569:19 66.6191 
5 *569:19 *897:wbs_adr_i[4] 1.1254 
*END

*D_NET *570 0.0863538
*CONN
*P wbs_adr_i[5] I
*I *897:wbs_adr_i[5] I *D soc_sys
*CAP
1 wbs_adr_i[5] 6.62064e-05
2 *897:wbs_adr_i[5] 2.12332e-05
3 *570:15 0.0219104
4 *570:13 0.026948
5 *570:7 0.00837505
6 *570:5 0.0033824
7 *570:13 *574:17 0.00766857
8 *570:15 *897:wbs_dat_i[5] 0.000129766
9 *897:wb_clk_i *897:wbs_adr_i[5] 8.02886e-05
10 *31:21 *570:13 0.002789
11 *66:13 *570:13 0.00308488
12 *77:17 *570:15 0
13 *78:21 *897:wbs_adr_i[5] 8.02886e-05
14 *115:14 *570:15 0.0104775
15 *554:17 *570:7 0.00134033
*RES
1 wbs_adr_i[5] *570:5 0.7425 
2 *570:5 *570:7 59.265 
3 *570:7 *570:13 21.6353 
4 *570:13 *570:15 67.6527 
5 *570:15 *897:wbs_adr_i[5] 1.1254 
*END

*D_NET *571 0.0900696
*CONN
*P wbs_adr_i[6] I
*I *897:wbs_adr_i[6] I *D soc_sys
*CAP
1 wbs_adr_i[6] 0.00154623
2 *897:wbs_adr_i[6] 0.000679355
3 *571:19 0.016132
4 *571:17 0.0192731
5 *571:13 0.00660741
6 *571:9 0.00433323
7 *571:9 *619:10 0.000526631
8 *571:13 *619:10 0.00170749
9 *897:wb_clk_i *897:wbs_adr_i[6] 0.000332638
10 *897:wbs_adr_i[3] *897:wbs_adr_i[6] 0.000251006
11 *78:21 *897:wbs_adr_i[6] 0.000251144
12 *116:23 *571:19 0.00761453
13 *141:13 *571:17 0.0029872
14 *143:39 *571:17 0.0136474
15 *549:17 *571:17 4.53852e-05
16 *568:23 *571:19 0.0141348
*RES
1 wbs_adr_i[6] *571:9 26.7525 
2 *571:9 *571:13 49.445 
3 *571:13 *571:17 20.9022 
4 *571:17 *571:19 64.8964 
5 *571:19 *897:wbs_adr_i[6] 3.29647 
*END

*D_NET *572 0.0836516
*CONN
*P wbs_adr_i[7] I
*I *897:wbs_adr_i[7] I *D soc_sys
*CAP
1 wbs_adr_i[7] 0.00982421
2 *897:wbs_adr_i[7] 4.44474e-05
3 *572:15 0.0254135
4 *572:13 0.0351933
5 *572:13 wbs_dat_o[6] 0
6 *572:13 *579:23 1.79809e-05
7 *572:13 *604:13 0
8 *572:13 *605:13 0
9 *572:13 *611:20 0.00753571
10 *572:13 *616:16 0.000155022
11 *572:15 *605:15 0.00511519
12 *78:21 *897:wbs_adr_i[7] 4.29667e-05
13 *565:15 *572:13 0.000309295
*RES
1 wbs_adr_i[7] *572:13 49.3366 
2 *572:13 *572:15 73.682 
3 *572:15 *897:wbs_adr_i[7] 1.1254 
*END

*D_NET *573 0.095128
*CONN
*P wbs_adr_i[8] I
*I *897:wbs_adr_i[8] I *D soc_sys
*CAP
1 wbs_adr_i[8] 0.00153363
2 *897:wbs_adr_i[8] 0.00034388
3 *573:19 0.0227865
4 *573:17 0.0265854
5 *573:11 0.00727079
6 *573:9 0.00466162
7 *573:9 *598:17 0.000225067
8 *573:11 *598:17 0.000574401
9 *573:17 *583:17 0.0043021
10 *573:17 *642:21 0.00171841
11 *573:19 *637:10 0.00452895
12 *78:21 *897:wbs_adr_i[8] 0.000345221
13 *113:13 *573:17 0.00667817
14 *141:13 *573:17 0
15 *544:17 *573:17 0.0135738
*RES
1 wbs_adr_i[8] *573:9 26.7525 
2 *573:9 *573:11 54.555 
3 *573:11 *573:17 26.3549 
4 *573:17 *573:19 64.1212 
5 *573:19 *897:wbs_adr_i[8] 1.9994 
*END

*D_NET *574 0.0880349
*CONN
*P wbs_adr_i[9] I
*I *897:wbs_adr_i[9] I *D soc_sys
*CAP
1 wbs_adr_i[9] 0.000645099
2 *897:wbs_adr_i[9] 0.000278113
3 *574:19 0.025511
4 *574:17 0.0331657
5 *574:13 0.0106942
6 *574:9 0.00340648
7 *574:9 *607:13 0
8 *574:17 *577:21 0
9 *574:17 *582:13 0.00511803
10 *574:17 *638:16 0
11 *574:19 *653:18 0
12 *31:21 *574:17 0.00123576
13 *66:13 *574:17 0
14 *78:21 *897:wbs_adr_i[9] 0.000311922
15 *570:13 *574:17 0.00766857
*RES
1 wbs_adr_i[9] *574:9 10.8825 
2 *574:9 *574:13 49.67 
3 *574:13 *574:17 27.8359 
4 *574:17 *574:19 67.6527 
5 *574:19 *897:wbs_adr_i[9] 1.88287 
*END

*D_NET *575 0.0709871
*CONN
*P wbs_cyc_i I
*I *897:wbs_cyc_i I *D soc_sys
*CAP
1 wbs_cyc_i 0.00144592
2 *897:wbs_cyc_i 0.00959252
3 *575:21 0.0251499
4 *575:11 0.0188163
5 *575:9 0.00470483
6 *897:wbs_cyc_i *644:19 0.00352269
7 *897:io_in[1] *575:11 0.000220919
8 *897:wb_clk_i *897:wbs_cyc_i 8.02886e-05
9 *43:33 *575:21 0.00314711
10 *44:25 *575:21 0.00314972
11 *76:51 *897:wbs_cyc_i 0.000457308
12 *77:15 *897:wbs_cyc_i 0.000656587
13 *78:19 *897:wbs_cyc_i 4.29667e-05
*RES
1 wbs_cyc_i *575:9 26.2425 
2 *575:9 *575:11 57.615 
3 *575:11 *575:21 45.2687 
4 *575:21 *897:wbs_cyc_i 25.802 
*END

*D_NET *576 0.0745913
*CONN
*P wbs_dat_i[0] I
*I *897:wbs_dat_i[0] I *D soc_sys
*CAP
1 wbs_dat_i[0] 0.0020941
2 *897:wbs_dat_i[0] 2.12332e-05
3 *576:13 0.0278602
4 *576:11 0.0299331
5 *576:11 wbs_dat_o[0] 0
6 *576:11 wbs_dat_o[1] 0.000176095
7 *576:11 wbs_dat_o[2] 8.59615e-05
8 *576:11 *598:15 0.00180688
9 *576:11 *641:13 0.00150589
10 *576:11 *645:11 0.00282314
11 *576:13 *642:15 0.00236686
12 *897:wbs_adr_i[0] *897:wbs_dat_i[0] 8.02886e-05
13 *897:wbs_adr_i[0] *576:13 4.73255e-05
14 *56:15 *576:13 0.0054393
15 *78:19 *897:wbs_dat_i[0] 8.02886e-05
16 *126:20 *576:13 0
17 *129:45 *576:13 3.28439e-06
18 *543:13 *576:11 0
19 *554:13 *576:11 0.000267358
*RES
1 wbs_dat_i[0] *576:11 11.0648 
2 *576:11 *576:13 77.7303 
3 *576:13 *897:wbs_dat_i[0] 1.1254 
*END

*D_NET *577 0.0872995
*CONN
*P wbs_dat_i[10] I
*I *897:wbs_dat_i[10] I *D soc_sys
*CAP
1 wbs_dat_i[10] 0.00146813
2 *897:wbs_dat_i[10] 4.44474e-05
3 *577:23 0.0233265
4 *577:21 0.0314154
5 *577:15 0.0110213
6 *577:13 0.00435606
7 *577:13 wbs_dat_o[10] 0
8 *577:13 wbs_dat_o[6] 0.000632038
9 *577:13 *578:11 0
10 *577:13 *643:13 0.00101736
11 *577:21 *582:13 0
12 *577:21 *588:21 0.00216953
13 *577:21 *618:16 0.000234652
14 *577:21 *638:16 0.00626731
15 *577:23 *609:10 0.00469484
16 *78:21 *897:wbs_dat_i[10] 4.29667e-05
17 *546:17 *577:13 0
18 *555:11 *577:21 0.000608859
19 *557:11 *577:21 0
20 *574:17 *577:21 0
*RES
1 wbs_dat_i[10] *577:13 9.9957 
2 *577:13 *577:15 51.105 
3 *577:15 *577:21 27.5785 
4 *577:21 *577:23 68.2556 
5 *577:23 *897:wbs_dat_i[10] 1.1254 
*END

*D_NET *578 0.0960326
*CONN
*P wbs_dat_i[11] I
*I *897:wbs_dat_i[11] I *D soc_sys
*CAP
1 wbs_dat_i[11] 0.000568385
2 *897:wbs_dat_i[11] 4.44474e-05
3 *578:21 0.0264184
4 *578:19 0.0342969
5 *578:15 0.0106076
6 *578:11 0.00325289
7 *578:15 wbs_dat_o[11] 0
8 *578:15 *602:15 0.000670069
9 *578:19 *589:11 0.00711656
10 *578:19 *635:16 0
11 *578:19 *637:16 0.0108437
12 *578:21 *611:14 0
13 *44:21 *578:21 0
14 *78:21 *897:wbs_dat_i[11] 4.29667e-05
15 *547:13 *578:19 0
16 *553:13 *578:19 0.00189394
17 *568:11 *578:11 0.00027675
18 *577:13 *578:11 0
*RES
1 wbs_dat_i[11] *578:11 3.46103 
2 *578:11 *578:15 48.035 
3 *578:15 *578:19 32.1477 
4 *578:19 *578:21 69.4615 
5 *578:21 *897:wbs_dat_i[11] 1.1254 
*END

*D_NET *579 0.100159
*CONN
*P wbs_dat_i[12] I
*I *897:wbs_dat_i[12] I *D soc_sys
*CAP
1 wbs_dat_i[12] 0.00496058
2 *897:wbs_dat_i[12] 2.58764e-05
3 *579:25 0.0283555
4 *579:23 0.0345748
5 *579:19 0.0112058
6 *897:wbs_dat_i[12] *611:12 8.02886e-05
7 *579:19 wbs_dat_o[14] 0.000809755
8 *579:19 wbs_dat_o[17] 0.00199181
9 *579:19 *584:15 0.000528933
10 *579:19 *614:24 0
11 *579:23 *586:13 0
12 *579:23 *616:16 0.0147468
13 *579:23 *621:14 0
14 *579:25 *580:17 1.05936e-05
15 *579:25 *580:19 0
16 *78:21 *897:wbs_dat_i[12] 4.29667e-05
17 *546:17 *579:19 0.00144234
18 *548:13 *579:23 0
19 *550:15 *579:19 0.000698924
20 *551:15 *579:19 0.000268082
21 *552:9 *579:19 0
22 *568:11 *579:19 0.000378998
23 *568:21 *579:19 1.91843e-05
24 *572:13 *579:23 1.79809e-05
*RES
1 wbs_dat_i[12] *579:19 38.1323 
2 *579:19 *579:23 23.1746 
3 *579:23 *579:25 73.5097 
4 *579:25 *897:wbs_dat_i[12] 1.1254 
*END

*D_NET *580 0.100241
*CONN
*P wbs_dat_i[13] I
*I *897:wbs_dat_i[13] I *D soc_sys
*CAP
1 wbs_dat_i[13] 0.0105478
2 *897:wbs_dat_i[13] 0.000821156
3 *580:19 0.0289744
4 *580:17 0.038701
5 *897:wbs_dat_i[13] *611:12 0.000349893
6 *580:17 wbs_dat_o[13] 0
7 *580:17 *591:19 0.00458314
8 *580:17 *614:24 0
9 *580:17 *624:14 0.00481398
10 *897:wbs_adr_i[13] *897:wbs_dat_i[13] 8.02886e-05
11 *78:21 *897:wbs_dat_i[13] 0.00217144
12 *545:13 *580:17 0.00918752
13 *579:25 *580:17 1.05936e-05
14 *579:25 *580:19 0
*RES
1 wbs_dat_i[13] *580:17 49.393 
2 *580:17 *580:19 73.4033 
3 *580:19 *897:wbs_dat_i[13] 4.33007 
*END

*D_NET *581 0.121996
*CONN
*P wbs_dat_i[14] I
*I *897:wbs_dat_i[14] I *D soc_sys
*CAP
1 wbs_dat_i[14] 0.00154341
2 *897:wbs_dat_i[14] 2.74782e-05
3 *581:19 0.0258554
4 *581:17 0.0302523
5 *581:13 0.00655172
6 *581:9 0.00367077
7 *581:17 *585:19 0.0190481
8 *581:17 *609:16 0.00393057
9 *31:21 *581:17 0.00519422
10 *66:13 *581:17 0.0259002
11 *78:21 *897:wbs_dat_i[14] 2.20023e-05
12 *546:17 *581:9 0
*RES
1 wbs_dat_i[14] *581:9 26.7525 
2 *581:9 *581:13 37.715 
3 *581:13 *581:17 39.0814 
4 *581:17 *581:19 67.0497 
5 *581:19 *897:wbs_dat_i[14] 1.06713 
*END

*D_NET *582 0.125841
*CONN
*P wbs_dat_i[15] I
*I *897:wbs_dat_i[15] I *D soc_sys
*CAP
1 wbs_dat_i[15] 4.08978e-05
2 *897:wbs_dat_i[15] 0.000501055
3 *582:15 0.0173101
4 *582:13 0.0234771
5 *582:7 0.0100815
6 *582:5 0.00345434
7 *582:15 *613:10 0
8 *897:wbs_adr_i[15] *897:wbs_dat_i[15] 0.000342383
9 *31:21 *582:13 0.00403284
10 *66:13 *582:13 0.00807591
11 *78:21 *897:wbs_dat_i[15] 0.00133164
12 *549:19 *582:15 0.0354641
13 *557:11 *582:13 0.0159488
14 *568:21 *582:7 2.99518e-06
15 *568:23 *582:7 0.000659586
16 *574:17 *582:13 0.00511803
17 *577:21 *582:13 0
*RES
1 wbs_dat_i[15] *582:5 0.7425 
2 *582:5 *582:7 59.775 
3 *582:7 *582:13 39.6979 
4 *582:13 *582:15 67.5665 
5 *582:15 *897:wbs_dat_i[15] 3.0482 
*END

*D_NET *583 0.121545
*CONN
*P wbs_dat_i[16] I
*I *897:wbs_dat_i[16] I *D soc_sys
*CAP
1 wbs_dat_i[16] 0.00153104
2 *897:wbs_dat_i[16] 4.44474e-05
3 *583:19 0.0236492
4 *583:17 0.0294071
5 *583:11 0.00902933
6 *583:9 0.00475795
7 *583:19 *615:10 0
8 *78:21 *897:wbs_dat_i[16] 4.29667e-05
9 *113:13 *583:17 0.0277823
10 *544:17 *583:17 0.00296716
11 *550:15 *583:9 0
12 *550:15 *583:11 0
13 *558:19 *583:17 0.0180319
14 *573:17 *583:17 0.0043021
*RES
1 wbs_dat_i[16] *583:9 26.7525 
2 *583:9 *583:11 55.065 
3 *583:11 *583:17 43.6018 
4 *583:17 *583:19 64.0351 
5 *583:19 *897:wbs_dat_i[16] 1.1254 
*END

*D_NET *584 0.12811
*CONN
*P wbs_dat_i[17] I
*I *897:wbs_dat_i[17] I *D soc_sys
*CAP
1 wbs_dat_i[17] 0.0015136
2 *897:wbs_dat_i[17] 4.44474e-05
3 *584:21 0.0164476
4 *584:19 0.0272138
5 *584:15 0.0123243
6 *584:19 *611:20 0
7 *584:19 *616:16 0
8 *584:19 *628:18 0
9 *584:21 *616:10 0.039998
10 *43:13 *584:21 0.0044926
11 *78:21 *897:wbs_dat_i[17] 4.29667e-05
12 *546:21 *584:19 0.00588714
13 *551:15 *584:15 0.00132441
14 *560:11 *584:19 0.018292
15 *562:11 *584:19 0
16 *579:19 *584:15 0.000528933
*RES
1 wbs_dat_i[17] *584:15 22.5033 
2 *584:15 *584:19 42.9853 
3 *584:19 *584:21 74.4572 
4 *584:21 *897:wbs_dat_i[17] 1.1254 
*END

*D_NET *585 0.131145
*CONN
*P wbs_dat_i[18] I
*I *897:wbs_dat_i[18] I *D soc_sys
*CAP
1 wbs_dat_i[18] 0.000361026
2 *897:wbs_dat_i[18] 4.44474e-05
3 *585:21 0.0253848
4 *585:19 0.0307703
5 *585:13 0.0081641
6 *585:11 0.00309525
7 *585:11 wbs_dat_o[18] 0
8 *585:13 wbs_dat_o[18] 0
9 *585:19 *594:15 0.0191576
10 *585:19 *609:16 0.008158
11 *31:21 *585:19 0.0059412
12 *37:17 *585:19 0.00132495
13 *66:13 *585:19 0.00652598
14 *78:21 *897:wbs_dat_i[18] 4.29667e-05
15 *551:15 *585:11 0.000685344
16 *553:7 *585:13 0.00244109
17 *581:17 *585:19 0.0190481
*RES
1 wbs_dat_i[18] *585:11 3.46103 
2 *585:11 *585:13 62.325 
3 *585:13 *585:19 46.2821 
4 *585:19 *585:21 66.9636 
5 *585:21 *897:wbs_dat_i[18] 1.1254 
*END

*D_NET *586 0.130703
*CONN
*P wbs_dat_i[19] I
*I *897:wbs_dat_i[19] I *D soc_sys
*CAP
1 wbs_dat_i[19] 0.0017448
2 *897:wbs_dat_i[19] 0.0001539
3 *586:15 0.0321232
4 *586:13 0.0413088
5 *586:9 0.0110843
6 *586:13 *621:14 0.0267804
7 *78:21 *897:wbs_dat_i[19] 0.000141106
8 *548:13 *586:13 0.0173661
9 *553:15 *586:15 0
10 *566:11 *586:13 0
11 *579:23 *586:13 0
*RES
1 wbs_dat_i[19] *586:9 30.0875 
2 *586:9 *586:13 48.2875 
3 *586:13 *586:15 72.7345 
4 *586:15 *897:wbs_dat_i[19] 1.41673 
*END

*D_NET *587 0.0763275
*CONN
*P wbs_dat_i[1] I
*I *897:wbs_dat_i[1] I *D soc_sys
*CAP
1 wbs_dat_i[1] 0.00112223
2 *897:wbs_dat_i[1] 0.00122494
3 *587:15 0.0305117
4 *587:13 0.030409
5 *587:13 wbs_dat_o[0] 0.00228603
6 *587:15 *633:20 0.00179627
7 *587:15 *640:19 0
8 *897:wb_clk_i *897:wbs_dat_i[1] 0.000812065
9 *897:wbs_adr_i[0] *897:wbs_dat_i[1] 0.000911398
10 *897:wbs_adr_i[1] *897:wbs_dat_i[1] 0.000247891
11 *76:57 *897:wbs_dat_i[1] 0
12 *78:19 *897:wbs_dat_i[1] 0.00044866
13 *111:25 *587:15 0
14 *543:13 *587:13 0.0015469
15 *554:13 *587:13 0.00501052
*RES
1 wbs_dat_i[1] *587:13 11.8645 
2 *587:13 *587:15 76.6105 
3 *587:15 *897:wbs_dat_i[1] 6.389 
*END

*D_NET *588 0.138866
*CONN
*P wbs_dat_i[20] I
*I *897:wbs_dat_i[20] I *D soc_sys
*CAP
1 wbs_dat_i[20] 0.00104097
2 *897:wbs_dat_i[20] 4.44474e-05
3 *588:23 0.028662
4 *588:21 0.0352282
5 *588:15 0.00871965
6 *588:13 0.00314997
7 *588:13 wbs_dat_o[19] 0
8 *588:13 *615:16 0
9 *588:15 *589:9 0.00222717
10 *588:21 *618:16 0.0258085
11 *588:21 *627:16 0.000999383
12 *78:21 *897:wbs_dat_i[20] 4.29667e-05
13 *555:11 *588:21 0.0307732
14 *556:9 *588:15 0
15 *556:13 *588:15 0
16 *577:21 *588:21 0.00216953
*RES
1 wbs_dat_i[20] *588:13 7.60677 
2 *588:13 *588:15 50.085 
3 *588:15 *588:21 49.4285 
4 *588:21 *588:23 68.4279 
5 *588:23 *897:wbs_dat_i[20] 1.1254 
*END

*D_NET *589 0.13169
*CONN
*P wbs_dat_i[21] I
*I *897:wbs_dat_i[21] I *D soc_sys
*CAP
1 wbs_dat_i[21] 0.00206341
2 *897:wbs_dat_i[21] 4.44474e-05
3 *589:15 0.0259662
4 *589:13 0.0259217
5 *589:11 0.00867912
6 *589:9 0.0107425
7 *589:11 *600:11 0.0201801
8 *78:21 *897:wbs_dat_i[21] 4.29667e-05
9 *547:13 *589:11 0
10 *550:19 *589:11 0
11 *553:13 *589:11 0.0287055
12 *555:11 *589:11 0
13 *578:19 *589:11 0.00711656
14 *588:15 *589:9 0.00222717
*RES
1 wbs_dat_i[21] *589:9 49.7975 
2 *589:9 *589:11 52.5071 
3 *589:11 *589:13 0.5 
4 *589:13 *589:15 69.3753 
5 *589:15 *897:wbs_dat_i[21] 1.1254 
*END

*D_NET *590 0.140544
*CONN
*P wbs_dat_i[22] I
*I *897:wbs_dat_i[22] I *D soc_sys
*CAP
1 wbs_dat_i[22] 0.0015072
2 *897:wbs_dat_i[22] 4.44474e-05
3 *590:19 0.0244409
4 *590:17 0.0243965
5 *590:15 0.00712708
6 *590:13 0.00972961
7 *590:9 0.00410973
8 *590:15 *622:16 0.00211634
9 *39:37 *590:15 0.0354533
10 *78:21 *897:wbs_dat_i[22] 4.29667e-05
11 *556:15 *590:15 0.0315758
*RES
1 wbs_dat_i[22] *590:9 26.2425 
2 *590:9 *590:13 44.345 
3 *590:13 *590:15 54.3134 
4 *590:15 *590:17 0.5 
5 *590:17 *590:19 65.93 
6 *590:19 *897:wbs_dat_i[22] 1.1254 
*END

*D_NET *591 0.123892
*CONN
*P wbs_dat_i[23] I
*I *897:wbs_dat_i[23] I *D soc_sys
*CAP
1 wbs_dat_i[23] 0.00208188
2 *897:wbs_dat_i[23] 2.58764e-05
3 *591:23 0.0283341
4 *591:21 0.0283082
5 *591:19 0.0138328
6 *591:17 0.0159147
7 *897:wbs_dat_i[23] *623:12 8.02886e-05
8 *591:17 wbs_dat_o[19] 0
9 *591:17 wbs_dat_o[22] 0
10 *591:17 wbs_dat_o[24] 0
11 *591:17 *615:16 0
12 *591:17 *623:18 0
13 *591:19 *599:11 0
14 *591:19 *624:14 3.88221e-05
15 *591:19 *625:14 0.0298025
16 *78:21 *897:wbs_dat_i[23] 4.29667e-05
17 *545:13 *591:19 0.000539921
18 *559:11 *591:17 0.000307293
19 *560:9 *591:17 0
20 *560:11 *591:19 0
21 *580:17 *591:19 0.00458314
*RES
1 wbs_dat_i[23] *591:17 18.9113 
2 *591:17 *591:19 52.6819 
3 *591:19 *591:21 0.5 
4 *591:21 *591:23 75.4047 
5 *591:23 *897:wbs_dat_i[23] 1.1254 
*END

*D_NET *592 0.131406
*CONN
*P wbs_dat_i[24] I
*I *897:wbs_dat_i[24] I *D soc_sys
*CAP
1 wbs_dat_i[24] 0.00253812
2 *897:wbs_dat_i[24] 0.000428296
3 *592:15 0.0267989
4 *592:13 0.0263706
5 *592:11 0.0120554
6 *592:9 0.0145935
7 *897:wbs_dat_i[24] *624:8 0.000796366
8 *592:11 *600:11 0
9 *592:11 *617:16 0
10 *592:15 *624:10 0
11 *897:wbs_adr_i[24] *897:wbs_dat_i[24] 8.02886e-05
12 *78:21 *897:wbs_dat_i[24] 0.00148962
13 *550:19 *592:11 0.0156326
14 *559:9 *592:9 0
15 *559:23 *592:15 0
16 *564:11 *592:11 0.0306225
*RES
1 wbs_dat_i[24] *592:9 44.1875 
2 *592:9 *592:11 56.0031 
3 *592:11 *592:13 0.5 
4 *592:13 *592:15 70.3228 
5 *592:15 *897:wbs_dat_i[24] 3.28127 
*END

*D_NET *593 0.148554
*CONN
*P wbs_dat_i[25] I
*I *897:wbs_dat_i[25] I *D soc_sys
*CAP
1 wbs_dat_i[25] 0.000626267
2 *897:wbs_dat_i[25] 0.000387918
3 *593:19 0.0167492
4 *593:17 0.0163613
5 *593:15 0.0156021
6 *593:13 0.0184765
7 *593:9 0.00350066
8 *593:15 *618:16 0
9 *593:15 *626:14 0.00492073
10 *593:15 *627:16 0
11 *31:21 *593:15 0.00364032
12 *78:21 *897:wbs_dat_i[25] 0.000435523
13 *557:11 *593:15 0.0309304
14 *560:15 *593:19 0.0369233
*RES
1 wbs_dat_i[25] *593:9 10.8825 
2 *593:9 *593:13 49.67 
3 *593:13 *593:15 58.7999 
4 *593:15 *593:17 0.5 
5 *593:17 *593:19 67.6527 
6 *593:19 *897:wbs_dat_i[25] 2.23247 
*END

*D_NET *594 0.149036
*CONN
*P wbs_dat_i[26] I
*I *897:wbs_dat_i[26] I *D soc_sys
*CAP
1 wbs_dat_i[26] 0.00152373
2 *897:wbs_dat_i[26] 0.00027733
3 *594:19 0.0250909
4 *594:17 0.0248135
5 *594:15 0.00815335
6 *594:13 0.0104024
7 *594:9 0.00377279
8 *594:15 *629:14 0.0359371
9 *31:21 *594:15 0.00761678
10 *37:17 *594:15 0.00286617
11 *66:13 *594:15 0.00906069
12 *78:21 *897:wbs_dat_i[26] 0.000363252
13 *585:19 *594:15 0.0191576
*RES
1 wbs_dat_i[26] *594:9 26.2425 
2 *594:9 *594:13 38.735 
3 *594:13 *594:15 61.0723 
4 *594:15 *594:17 0.5 
5 *594:17 *594:19 66.8775 
6 *594:19 *897:wbs_dat_i[26] 1.9994 
*END

*D_NET *595 0.124881
*CONN
*P wbs_dat_i[27] I
*I *897:wbs_dat_i[27] I *D soc_sys
*CAP
1 wbs_dat_i[27] 0.000650032
2 *897:wbs_dat_i[27] 4.44474e-05
3 *595:21 0.0286039
4 *595:19 0.0285595
5 *595:17 0.0179607
6 *595:15 0.0186107
7 *595:15 wbs_dat_o[25] 0.000285
8 *595:15 wbs_dat_o[26] 0.000548551
9 *595:15 wbs_dat_o[27] 2.60489e-05
10 *595:17 *623:18 0.0295491
11 *595:17 *624:14 0
12 *595:21 *655:29 0
13 *78:21 *897:wbs_dat_i[27] 4.29667e-05
14 *559:11 *595:17 0
15 *563:13 *595:15 0
*RES
1 wbs_dat_i[27] *595:15 9.66623 
2 *595:15 *595:17 63.0534 
3 *595:17 *595:19 0.5 
4 *595:19 *595:21 76.4383 
5 *595:21 *897:wbs_dat_i[27] 1.1254 
*END

*D_NET *596 0.128545
*CONN
*P wbs_dat_i[28] I
*I *897:wbs_dat_i[28] I *D soc_sys
*CAP
1 wbs_dat_i[28] 0.00152276
2 *897:wbs_dat_i[28] 2.12332e-05
3 *596:19 0.0237484
4 *596:17 0.0237272
5 *596:15 0.0138008
6 *596:13 0.0138008
7 *596:11 0.00322799
8 *596:9 0.00475076
9 *897:wbs_dat_i[28] *628:12 8.02886e-05
10 *897:wbs_dat_i[28] *718:15 8.02886e-05
11 *596:9 wbs_dat_o[25] 0
12 *596:19 *628:14 0
13 *113:13 *596:15 0.00549839
14 *141:13 *596:15 0.00988142
15 *558:19 *596:15 0.028405
*RES
1 wbs_dat_i[28] *596:9 26.2425 
2 *596:9 *596:11 54.045 
3 *596:11 *596:13 0.5 
4 *596:13 *596:15 66.025 
5 *596:15 *596:17 0.5 
6 *596:17 *596:19 64.2073 
7 *596:19 *897:wbs_dat_i[28] 1.1254 
*END

*D_NET *597 0.157132
*CONN
*P wbs_dat_i[29] I
*I *897:wbs_dat_i[29] I *D soc_sys
*CAP
1 wbs_dat_i[29] 0.0015296
2 *897:wbs_dat_i[29] 0.000455543
3 *597:19 0.024512
4 *597:17 0.0240565
5 *597:15 0.00808053
6 *597:13 0.0110021
7 *597:9 0.00445117
8 *897:wbs_dat_i[29] *709:15 0.000476846
9 *897:wbs_dat_i[29] *718:15 0.00120384
10 *897:wbs_adr_i[29] *897:wbs_dat_i[29] 4.21127e-05
11 *141:13 *597:15 0.00195906
12 *143:39 *597:15 0.044032
13 *561:15 *597:15 0.035331
14 *564:15 *597:19 0
*RES
1 wbs_dat_i[29] *597:9 26.2425 
2 *597:9 *597:13 49.445 
3 *597:13 *597:15 65.6171 
4 *597:15 *597:17 0.5 
5 *597:17 *597:19 64.9825 
6 *597:19 *897:wbs_dat_i[29] 3.4434 
*END

*D_NET *598 0.0844181
*CONN
*P wbs_dat_i[2] I
*I *897:wbs_dat_i[2] I *D soc_sys
*CAP
1 wbs_dat_i[2] 0.00278392
2 *897:wbs_dat_i[2] 1.42417e-05
3 *598:17 0.0271003
4 *598:15 0.02987
5 *897:wbs_dat_i[2] *630:16 4.21127e-05
6 *598:15 *601:11 0.00724714
7 *598:15 *641:13 0.00554913
8 *598:15 *643:13 0
9 *75:28 *598:17 0.00324363
10 *75:30 *598:17 0.00187467
11 *78:19 *897:wbs_dat_i[2] 4.21127e-05
12 *125:32 *598:17 0.00386035
13 *565:13 *598:15 0.000184154
14 *573:9 *598:17 0.000225067
15 *573:11 *598:17 0.000574401
16 *576:11 *598:15 0.00180688
*RES
1 wbs_dat_i[2] *598:15 16.0956 
2 *598:15 *598:17 77.6441 
3 *598:17 *897:wbs_dat_i[2] 1.06713 
*END

*D_NET *599 0.133132
*CONN
*P wbs_dat_i[30] I
*I *897:wbs_dat_i[30] I *D soc_sys
*CAP
1 wbs_dat_i[30] 0.001094
2 *897:wbs_dat_i[30] 0.000430927
3 *599:15 0.0280766
4 *599:13 0.0276457
5 *599:11 0.0199142
6 *599:9 0.0210082
7 *897:wbs_dat_i[30] *676:23 0.000796366
8 *897:wbs_dat_i[30] *709:15 0.000557805
9 *897:wbs_dat_i[30] *718:15 0.000796366
10 *897:wbs_dat_i[30] *735:15 0.000555194
11 *599:11 *625:14 0
12 *599:11 *628:18 0
13 *560:11 *599:11 0.0321266
14 *566:9 *599:9 0
15 *566:15 *897:wbs_dat_i[30] 0.000129766
16 *566:15 *599:15 0
17 *591:19 *599:11 0
*RES
1 wbs_dat_i[30] *599:9 19.1975 
2 *599:9 *599:11 67.9478 
3 *599:11 *599:13 0.5 
4 *599:13 *599:15 74.3711 
5 *599:15 *897:wbs_dat_i[30] 4.3826 
*END

*D_NET *600 0.14651
*CONN
*P wbs_dat_i[31] I
*I *897:wbs_dat_i[31] I *D soc_sys
*CAP
1 wbs_dat_i[31] 0.0028683
2 *897:wbs_dat_i[31] 0.000135306
3 *600:15 0.0172833
4 *600:13 0.017148
5 *600:11 0.0232679
6 *600:9 0.0261362
7 *897:wbs_dat_i[31] *676:23 0.000569542
8 *897:wbs_dat_i[31] *718:15 0.000569542
9 *600:15 *632:18 0.0378018
10 *531:5 *600:15 0.000549426
11 *550:19 *600:11 0
12 *564:11 *600:11 0
13 *589:11 *600:11 0.0201801
14 *592:11 *600:11 0
*RES
1 wbs_dat_i[31] *600:9 49.2875 
2 *600:9 *600:11 71.0359 
3 *600:11 *600:13 0.5 
4 *600:13 *600:15 69.4615 
5 *600:15 *897:wbs_dat_i[31] 1.88287 
*END

*D_NET *601 0.0890099
*CONN
*P wbs_dat_i[3] I
*I *897:wbs_dat_i[3] I *D soc_sys
*CAP
1 wbs_dat_i[3] 0.00500554
2 *897:wbs_dat_i[3] 0.000109323
3 *601:13 0.0271231
4 *601:11 0.0320193
5 *601:11 *643:13 0
6 *601:13 *607:15 0.00101596
7 *897:wb_clk_i *897:wbs_dat_i[3] 0.000577397
8 *78:21 *897:wbs_dat_i[3] 0.000577397
9 *119:14 *601:13 0.00986259
10 *544:9 *601:13 0.000116216
11 *544:11 *601:13 0.000543419
12 *568:11 *601:11 0.00481248
13 *598:15 *601:11 0.00724714
*RES
1 wbs_dat_i[3] *601:11 17.5953 
2 *601:11 *601:13 77.6441 
3 *601:13 *897:wbs_dat_i[3] 1.88287 
*END

*D_NET *602 0.0845639
*CONN
*P wbs_dat_i[4] I
*I *897:wbs_dat_i[4] I *D soc_sys
*CAP
1 wbs_dat_i[4] 0.0055511
2 *897:wbs_dat_i[4] 0.000502606
3 *602:15 0.0277457
4 *602:13 0.0327942
5 *897:wbs_dat_i[4] *634:16 0.000784974
6 *602:13 wbs_dat_o[4] 0
7 *602:13 wbs_dat_o[6] 0.00762041
8 *602:13 *643:13 0
9 *897:wb_clk_i *897:wbs_dat_i[4] 0.000719327
10 *897:wbs_adr_i[3] *897:wbs_dat_i[4] 0.000782373
11 *70:16 *602:15 0.00661404
12 *78:21 *897:wbs_dat_i[4] 0.000719327
13 *543:13 *602:13 0
14 *569:19 *897:wbs_dat_i[4] 5.97021e-05
15 *569:19 *602:15 0
16 *578:15 *602:15 0.000670069
*RES
1 wbs_dat_i[4] *602:13 25.8406 
2 *602:13 *602:15 76.1799 
3 *602:15 *897:wbs_dat_i[4] 4.61567 
*END

*D_NET *603 0.0795379
*CONN
*P wbs_dat_i[5] I
*I *897:wbs_dat_i[5] I *D soc_sys
*CAP
1 wbs_dat_i[5] 0.0022034
2 *897:wbs_dat_i[5] 0.00104914
3 *603:15 0.0280607
4 *603:13 0.033777
5 *603:9 0.00896886
6 *603:13 *606:13 0
7 *603:13 *610:16 0.00193713
8 *603:13 *635:16 0
9 *603:15 *634:16 1.74783e-05
10 *897:wb_clk_i *897:wbs_dat_i[5] 0.000788845
11 *897:wbs_adr_i[3] *897:wbs_dat_i[5] 0.00168708
12 *78:21 *897:wbs_dat_i[5] 0.000788845
13 *115:14 *897:wbs_dat_i[5] 0.000129766
14 *570:15 *897:wbs_dat_i[5] 0.000129766
*RES
1 wbs_dat_i[5] *603:9 39.0875 
2 *603:9 *603:13 17.9306 
3 *603:13 *603:15 71.0119 
4 *603:15 *897:wbs_dat_i[5] 6.1306 
*END

*D_NET *604 0.0790632
*CONN
*P wbs_dat_i[6] I
*I *897:wbs_dat_i[6] I *D soc_sys
*CAP
1 wbs_dat_i[6] 0.00161223
2 *897:wbs_dat_i[6] 4.44474e-05
3 *604:15 0.0264188
4 *604:13 0.0350641
5 *604:9 0.010302
6 *604:13 *606:13 0
7 *604:15 *897:adc_data[4] 5.63741e-05
8 *604:15 *636:10 0
9 *71:25 *604:15 0
10 *78:21 *897:wbs_dat_i[6] 4.29667e-05
11 *80:22 *604:15 0.00326149
12 *543:15 *604:9 0.000441859
13 *548:13 *604:13 0.00170906
14 *550:15 *604:15 0.000109931
15 *572:13 *604:13 0
*RES
1 wbs_dat_i[6] *604:9 28.7225 
2 *604:9 *604:13 23.4659 
3 *604:13 *604:15 72.9068 
4 *604:15 *897:wbs_dat_i[6] 1.1254 
*END

*D_NET *605 0.0836404
*CONN
*P wbs_dat_i[7] I
*I *897:wbs_dat_i[7] I *D soc_sys
*CAP
1 wbs_dat_i[7] 0.0093131
2 *897:wbs_dat_i[7] 0.000278113
3 *605:15 0.0265489
4 *605:13 0.0355839
5 *605:13 wbs_dat_o[7] 0
6 *605:13 *611:20 0
7 *78:21 *897:wbs_dat_i[7] 0.000311922
8 *545:13 *605:13 0
9 *546:21 *605:13 0.00604955
10 *552:11 *605:15 0.000439724
11 *572:13 *605:13 0
12 *572:15 *605:15 0.00511519
*RES
1 wbs_dat_i[7] *605:13 43.2022 
2 *605:13 *605:15 74.5433 
3 *605:15 *897:wbs_dat_i[7] 1.88287 
*END

*D_NET *606 0.100813
*CONN
*P wbs_dat_i[8] I
*I *897:wbs_dat_i[8] I *D soc_sys
*CAP
1 wbs_dat_i[8] 0.00193103
2 *897:wbs_dat_i[8] 0.000185251
3 *606:15 0.0186258
4 *606:13 0.0276061
5 *606:9 0.0110965
6 *897:wbs_dat_i[8] *638:8 0.000349893
7 *606:9 *638:18 0
8 *606:13 *612:16 0
9 *606:13 *613:16 0.00356647
10 *606:15 *638:10 0.0373114
11 *78:21 *897:wbs_dat_i[8] 3.81927e-05
12 *548:13 *606:13 0
13 *555:7 *606:15 0.000102302
14 *603:13 *606:13 0
15 *604:13 *606:13 0
*RES
1 wbs_dat_i[8] *606:9 34.1675 
2 *606:9 *606:13 26.6123 
3 *606:13 *606:15 72.0455 
4 *606:15 *897:wbs_dat_i[8] 1.6498 
*END

*D_NET *607 0.0986799
*CONN
*P wbs_dat_i[9] I
*I *897:wbs_dat_i[9] I *D soc_sys
*CAP
1 wbs_dat_i[9] 0.000620475
2 *897:wbs_dat_i[9] 2.74782e-05
3 *607:23 0.0222957
4 *607:21 0.026669
5 *607:15 0.00702185
6 *607:13 0.00324153
7 *607:13 wbs_dat_o[6] 0.000211694
8 *607:13 *643:13 0.000992596
9 *607:15 *639:20 0
10 *607:21 *639:16 0.00884783
11 *607:23 *639:10 0.00464021
12 *39:37 *607:21 0.017925
13 *78:21 *897:wbs_dat_i[9] 2.20023e-05
14 *544:9 *607:15 0.00186605
15 *544:11 *607:15 0.00157189
16 *556:15 *607:21 0.00171057
17 *574:9 *607:13 0
18 *601:13 *607:15 0.00101596
*RES
1 wbs_dat_i[9] *607:13 7.42217 
2 *607:13 *607:15 64.875 
3 *607:15 *607:21 28.5107 
4 *607:21 *607:23 65.93 
5 *607:23 *897:wbs_dat_i[9] 1.06713 
*END

*D_NET *608 0.0748171
*CONN
*P wbs_dat_o[0] O
*I *897:wbs_dat_o[0] O *D soc_sys
*CAP
1 wbs_dat_o[0] 0.00102434
2 *897:wbs_dat_o[0] 0.00403375
3 *608:27 0.0261035
4 *608:25 0.0291129
5 *608:25 *897:wbs_we_i 0.00469701
6 *897:wbs_adr_i[0] *608:25 8.24216e-05
7 *76:57 *608:25 0
8 *78:19 *608:25 0.000299791
9 *121:25 *608:25 0.000832474
10 *121:25 *608:27 0.000169477
11 *129:45 *608:25 0.000991305
12 *129:49 *608:25 0.000135539
13 *542:28 *608:25 0.000919384
14 *543:13 wbs_dat_o[0] 0.00376884
15 *554:13 wbs_dat_o[0] 0.000360442
16 *576:11 wbs_dat_o[0] 0
17 *587:13 wbs_dat_o[0] 0.00228603
*RES
1 *897:wbs_dat_o[0] *608:25 19.6308 
2 *608:25 *608:27 64.8559 
3 *608:27 wbs_dat_o[0] 10.855 
*END

*D_NET *609 0.102133
*CONN
*P wbs_dat_o[10] O
*I *897:wbs_dat_o[10] O *D soc_sys
*CAP
1 wbs_dat_o[10] 0.00145916
2 *897:wbs_dat_o[10] 0.000261469
3 *609:20 0.00365351
4 *609:16 0.0064544
5 *609:10 0.0269567
6 *609:8 0.0229582
7 *31:21 *609:16 0.00387051
8 *34:23 *609:16 0.0124138
9 *35:23 *609:16 5.91244e-05
10 *35:23 *609:20 5.25082e-05
11 *37:17 *609:16 0.00464553
12 *66:13 *609:16 0.00224843
13 *78:21 *609:8 0.000316434
14 *577:13 wbs_dat_o[10] 0
15 *577:23 *609:10 0.00469484
16 *581:17 *609:16 0.00393057
17 *585:19 *609:16 0.008158
*RES
1 *897:wbs_dat_o[10] *609:8 1.88287 
2 *609:8 *609:10 66.8775 
3 *609:10 *609:16 31.6571 
4 *609:16 *609:20 39.03 
5 *609:20 wbs_dat_o[10] 25.4475 
*END

*D_NET *610 0.103382
*CONN
*P wbs_dat_o[11] O
*I *897:wbs_dat_o[11] O *D soc_sys
*CAP
1 wbs_dat_o[11] 0.00224087
2 *897:wbs_dat_o[11] 2.58764e-05
3 *610:16 0.00934957
4 *610:10 0.034101
5 *610:8 0.0270182
6 *610:8 *611:12 8.02886e-05
7 *610:10 *611:14 0
8 *610:16 *612:16 0.0189907
9 *610:16 *617:16 0.00959545
10 *610:16 *635:16 0
11 *78:21 *610:8 4.29667e-05
12 *578:15 wbs_dat_o[11] 0
13 *603:13 *610:16 0.00193713
*RES
1 *897:wbs_dat_o[11] *610:8 1.1254 
2 *610:8 *610:10 71.098 
3 *610:10 *610:16 34.3957 
4 *610:16 wbs_dat_o[11] 39.0975 
*END

*D_NET *611 0.0951356
*CONN
*P wbs_dat_o[12] O
*I *897:wbs_dat_o[12] O *D soc_sys
*CAP
1 wbs_dat_o[12] 0.00132202
2 *897:wbs_dat_o[12] 0.00153949
3 *611:20 0.00971135
4 *611:14 0.0367578
5 *611:12 0.0299079
6 *611:20 *616:16 0.00672215
7 *897:wbs_adr_i[12] *611:12 8.02886e-05
8 *897:wbs_dat_i[12] *611:12 8.02886e-05
9 *897:wbs_dat_i[13] *611:12 0.000349893
10 *78:21 *611:12 0.00104845
11 *546:21 *611:20 0
12 *547:9 wbs_dat_o[12] 0
13 *572:13 *611:20 0.00753571
14 *578:21 *611:14 0
15 *584:19 *611:20 0
16 *605:13 *611:20 0
17 *610:8 *611:12 8.02886e-05
18 *610:10 *611:14 0
*RES
1 *897:wbs_dat_o[12] *611:12 6.00713 
2 *611:12 *611:14 73.682 
3 *611:14 *611:20 31.4241 
4 *611:20 wbs_dat_o[12] 23.1225 
*END

*D_NET *612 0.100065
*CONN
*P wbs_dat_o[13] O
*I *897:wbs_dat_o[13] O *D soc_sys
*CAP
1 wbs_dat_o[13] 0.0022822
2 *897:wbs_dat_o[13] 4.44474e-05
3 *612:16 0.012186
4 *612:10 0.0367002
5 *612:8 0.0268408
6 *612:16 *613:16 0
7 *612:16 *617:16 0.00297783
8 *78:21 *612:8 4.29667e-05
9 *551:19 *612:16 0
10 *580:17 wbs_dat_o[13] 0
11 *606:13 *612:16 0
12 *610:16 *612:16 0.0189907
*RES
1 *897:wbs_dat_o[13] *612:8 1.1254 
2 *612:8 *612:10 71.1841 
3 *612:10 *612:16 38.4743 
4 *612:16 wbs_dat_o[13] 39.1425 
*END

*D_NET *613 0.109958
*CONN
*P wbs_dat_o[14] O
*I *897:wbs_dat_o[14] O *D soc_sys
*CAP
1 wbs_dat_o[14] 0.00278776
2 *897:wbs_dat_o[14] 4.44474e-05
3 *613:16 0.00909265
4 *613:10 0.033367
5 *613:8 0.0271065
6 wbs_dat_o[14] wbs_dat_o[15] 0
7 *613:16 *620:14 0.0172341
8 *78:21 *613:8 4.29667e-05
9 *548:13 *613:16 0
10 *551:19 *613:16 0.0155595
11 *568:11 wbs_dat_o[14] 0.000301236
12 *568:21 wbs_dat_o[14] 4.60198e-05
13 *579:19 wbs_dat_o[14] 0.000809755
14 *582:15 *613:10 0
15 *606:13 *613:16 0.00356647
16 *612:16 *613:16 0
*RES
1 *897:wbs_dat_o[14] *613:8 1.1254 
2 *613:8 *613:10 71.8732 
3 *613:10 *613:16 37.5421 
4 *613:16 wbs_dat_o[14] 39.0808 
*END

*D_NET *614 0.112012
*CONN
*P wbs_dat_o[15] O
*I *897:wbs_dat_o[15] O *D soc_sys
*CAP
1 wbs_dat_o[15] 0.000272696
2 *897:wbs_dat_o[15] 4.44474e-05
3 *614:24 0.0108343
4 *614:10 0.0422781
5 *614:8 0.0317609
6 *614:24 wbs_dat_o[16] 0.000324186
7 *614:24 wbs_dat_o[6] 0.000366551
8 *614:24 *615:16 0.0260879
9 *614:24 *624:14 0
10 wbs_dat_o[14] wbs_dat_o[15] 0
11 *78:21 *614:8 4.29667e-05
12 *550:15 *614:24 0
13 *579:19 *614:24 0
14 *580:17 *614:24 0
*RES
1 *897:wbs_dat_o[15] *614:8 1.1254 
2 *614:8 *614:10 76.1799 
3 *614:10 *614:24 47.3681 
4 *614:24 wbs_dat_o[15] 4.7625 
*END

*D_NET *615 0.118202
*CONN
*P wbs_dat_o[16] O
*I *897:wbs_dat_o[16] O *D soc_sys
*CAP
1 wbs_dat_o[16] 0.000386466
2 *897:wbs_dat_o[16] 0.00018417
3 *615:16 0.00762257
4 *615:10 0.0361069
5 *615:8 0.0290549
6 *615:10 *654:23 0
7 *615:16 wbs_dat_o[18] 0
8 *615:16 wbs_dat_o[21] 0
9 *615:16 wbs_dat_o[6] 0.000225668
10 *615:16 *623:18 0.0179739
11 *615:16 *624:14 0
12 *78:21 *615:8 0.00023514
13 *550:15 wbs_dat_o[16] 0
14 *583:19 *615:10 0
15 *588:13 *615:16 0
16 *591:17 *615:16 0
17 *614:24 wbs_dat_o[16] 0.000324186
18 *614:24 *615:16 0.0260879
*RES
1 *897:wbs_dat_o[16] *615:8 1.6498 
2 *615:8 *615:10 76.266 
3 *615:10 *615:16 43.427 
4 *615:16 wbs_dat_o[16] 7.9875 
*END

*D_NET *616 0.136547
*CONN
*P wbs_dat_o[17] O
*I *897:wbs_dat_o[17] O *D soc_sys
*CAP
1 wbs_dat_o[17] 0.000938816
2 *897:wbs_dat_o[17] 0.000387918
3 *616:16 0.010323
4 *616:10 0.0275024
5 *616:8 0.0185062
6 *78:21 *616:8 0.000435523
7 *552:9 wbs_dat_o[17] 0
8 *562:11 *616:16 0.0148391
9 *563:15 *616:16 0
10 *572:13 *616:16 0.000155022
11 *579:19 wbs_dat_o[17] 0.00199181
12 *579:23 *616:16 0.0147468
13 *584:19 *616:16 0
14 *584:21 *616:10 0.039998
15 *611:20 *616:16 0.00672215
*RES
1 *897:wbs_dat_o[17] *616:8 2.23247 
2 *616:8 *616:10 73.5959 
3 *616:10 *616:16 44.7089 
4 *616:16 wbs_dat_o[17] 24.4875 
*END

*D_NET *617 0.121631
*CONN
*P wbs_dat_o[18] O
*I *897:wbs_dat_o[18] O *D soc_sys
*CAP
1 wbs_dat_o[18] 0.00354866
2 *897:wbs_dat_o[18] 4.44474e-05
3 *617:16 0.0158705
4 *617:10 0.0447316
5 *617:8 0.0324542
6 wbs_dat_o[18] wbs_dat_o[19] 0
7 *617:16 *632:22 0.0118186
8 *78:21 *617:8 4.29667e-05
9 *550:19 *617:16 0
10 *551:15 wbs_dat_o[18] 0
11 *551:19 *617:16 0
12 *555:7 wbs_dat_o[18] 0
13 *564:11 *617:16 0
14 *567:11 *617:16 0.000546433
15 *585:11 wbs_dat_o[18] 0
16 *585:13 wbs_dat_o[18] 0
17 *592:11 *617:16 0
18 *610:16 *617:16 0.00959545
19 *612:16 *617:16 0.00297783
20 *615:16 wbs_dat_o[18] 0
*RES
1 *897:wbs_dat_o[18] *617:8 1.1254 
2 *617:8 *617:10 71.0119 
3 *617:10 *617:16 45.0585 
4 *617:16 wbs_dat_o[18] 43.9552 
*END

*D_NET *618 0.115849
*CONN
*P wbs_dat_o[19] O
*I *897:wbs_dat_o[19] O *D soc_sys
*CAP
1 wbs_dat_o[19] 0.00305694
2 *897:wbs_dat_o[19] 4.44474e-05
3 *618:18 0.00621638
4 *618:16 0.013694
5 *618:10 0.0360388
6 *618:8 0.0255486
7 wbs_dat_o[19] wbs_dat_o[21] 0
8 wbs_dat_o[19] wbs_dat_o[22] 0.0017868
9 *618:16 *627:16 0.000116508
10 *618:18 wbs_dat_o[23] 0
11 wbs_dat_o[18] wbs_dat_o[19] 0
12 *78:21 *618:8 4.29667e-05
13 *551:15 wbs_dat_o[19] 0.00326056
14 *557:11 *618:16 0
15 *559:9 *618:18 0
16 *577:21 *618:16 0.000234652
17 *588:13 wbs_dat_o[19] 0
18 *588:21 *618:16 0.0258085
19 *591:17 wbs_dat_o[19] 0
20 *593:15 *618:16 0
*RES
1 *897:wbs_dat_o[19] *618:8 1.1254 
2 *618:8 *618:10 68.3417 
3 *618:10 *618:16 40.5137 
4 *618:16 *618:18 54.165 
5 *618:18 wbs_dat_o[19] 11.9564 
*END

*D_NET *619 0.0804508
*CONN
*P wbs_dat_o[1] O
*I *897:wbs_dat_o[1] O *D soc_sys
*CAP
1 wbs_dat_o[1] 0.00161641
2 *897:wbs_dat_o[1] 2.58764e-05
3 *619:10 0.0287371
4 *619:8 0.0271466
5 wbs_dat_o[1] *641:13 0.000242908
6 wbs_dat_o[1] *643:13 0.000806572
7 *619:10 *630:18 0
8 *897:wb_clk_i *619:8 8.02886e-05
9 *75:28 *619:10 0.00137234
10 *78:19 *619:8 4.29667e-05
11 *543:15 *619:10 0.00490453
12 *554:13 wbs_dat_o[1] 0.00608421
13 *565:13 wbs_dat_o[1] 0.0069808
14 *571:9 *619:10 0.000526631
15 *571:13 *619:10 0.00170749
16 *576:11 wbs_dat_o[1] 0.000176095
*RES
1 *897:wbs_dat_o[1] *619:8 1.1254 
2 *619:8 *619:10 77.2996 
3 *619:10 wbs_dat_o[1] 15.6178 
*END

*D_NET *620 0.120415
*CONN
*P wbs_dat_o[20] O
*I *897:wbs_dat_o[20] O *D soc_sys
*CAP
1 wbs_dat_o[20] 0.00196284
2 *897:wbs_dat_o[20] 4.44474e-05
3 *620:14 0.0126105
4 *620:12 0.0106477
5 *620:10 0.026965
6 *620:8 0.0270095
7 *78:21 *620:8 4.29667e-05
8 *548:13 *620:14 0
9 *551:19 *620:14 0.00381296
10 *556:9 wbs_dat_o[20] 0
11 *556:13 wbs_dat_o[20] 0
12 *556:19 *620:10 0
13 *566:11 *620:14 0.0200849
14 *567:11 *620:14 0
15 *613:16 *620:14 0.0172341
*RES
1 *897:wbs_dat_o[20] *620:8 1.1254 
2 *620:8 *620:10 71.9593 
3 *620:10 *620:12 0.5 
4 *620:12 *620:14 50.8174 
5 *620:14 wbs_dat_o[20] 34.6775 
*END

*D_NET *621 0.135839
*CONN
*P wbs_dat_o[21] O
*I *897:wbs_dat_o[21] O *D soc_sys
*CAP
1 wbs_dat_o[21] 0.00229395
2 *897:wbs_dat_o[21] 4.44474e-05
3 *621:14 0.0106521
4 *621:12 0.00835818
5 *621:10 0.0296855
6 *621:8 0.02973
7 wbs_dat_o[19] wbs_dat_o[21] 0
8 *78:21 *621:8 4.29667e-05
9 *551:15 wbs_dat_o[21] 0
10 *558:11 wbs_dat_o[21] 0.00211472
11 *563:15 *621:14 0.026137
12 *566:11 *621:14 0
13 *579:23 *621:14 0
14 *586:13 *621:14 0.0267804
15 *615:16 wbs_dat_o[21] 0
*RES
1 *897:wbs_dat_o[21] *621:8 1.1254 
2 *621:8 *621:10 72.8207 
3 *621:10 *621:12 0.5 
4 *621:12 *621:14 50.0017 
5 *621:14 wbs_dat_o[21] 33.5173 
*END

*D_NET *622 0.120494
*CONN
*P wbs_dat_o[22] O
*I *897:wbs_dat_o[22] O *D soc_sys
*CAP
1 wbs_dat_o[22] 0.00236906
2 *897:wbs_dat_o[22] 2.74782e-05
3 *622:22 0.00593746
4 *622:20 0.00417935
5 *622:16 0.013266
6 *622:10 0.0348355
7 *622:8 0.0222079
8 wbs_dat_o[22] wbs_dat_o[25] 0.00166089
9 wbs_dat_o[22] wbs_dat_o[26] 3.56092e-05
10 *622:10 *623:14 0.00463569
11 *622:22 wbs_dat_o[26] 5.33545e-05
12 wbs_dat_o[19] wbs_dat_o[22] 0.0017868
13 *39:37 *622:16 1.19333e-05
14 *78:21 *622:8 2.20023e-05
15 *143:39 *622:16 0
16 *556:15 *622:16 0.0251276
17 *559:11 wbs_dat_o[22] 0.0017719
18 *559:21 *622:16 0.000448818
19 *590:15 *622:16 0.00211634
20 *591:17 wbs_dat_o[22] 0
*RES
1 *897:wbs_dat_o[22] *622:8 1.06713 
2 *622:8 *622:10 65.7577 
3 *622:10 *622:16 46.7482 
4 *622:16 *622:20 9.435 
5 *622:20 *622:22 61.44 
6 *622:22 wbs_dat_o[22] 11.1568 
*END

*D_NET *623 0.13026
*CONN
*P wbs_dat_o[23] O
*I *897:wbs_dat_o[23] O *D soc_sys
*CAP
1 wbs_dat_o[23] 0.000458494
2 *897:wbs_dat_o[23] 0.0012627
3 *623:18 0.0106901
4 *623:16 0.0102316
5 *623:14 0.0265276
6 *623:12 0.0277903
7 *623:18 *624:14 0
8 *897:wbs_adr_i[23] *623:12 4.21127e-05
9 *897:wbs_dat_i[23] *623:12 8.02886e-05
10 *78:21 *623:12 0.00101777
11 *558:23 *623:14 0
12 *591:17 *623:18 0
13 *595:17 *623:18 0.0295491
14 *615:16 *623:18 0.0179739
15 *618:18 wbs_dat_o[23] 0
16 *622:10 *623:14 0.00463569
*RES
1 *897:wbs_dat_o[23] *623:12 4.95833 
2 *623:12 *623:14 76.266 
3 *623:14 *623:16 0.5 
4 *623:16 *623:18 52.915 
5 *623:18 wbs_dat_o[23] 8.3225 
*END

*D_NET *624 0.144773
*CONN
*P wbs_dat_o[24] O
*I *897:wbs_dat_o[24] O *D soc_sys
*CAP
1 wbs_dat_o[24] 0.000737497
2 *897:wbs_dat_o[24] 0.000736584
3 *624:14 0.014804
4 *624:12 0.0140665
5 *624:10 0.0198772
6 *624:8 0.0206138
7 *624:14 *625:14 0.0317099
8 *897:wbs_dat_i[24] *624:8 0.000796366
9 *78:21 *624:8 0.000512449
10 *559:23 *624:10 0.0360663
11 *580:17 *624:14 0.00481398
12 *591:17 wbs_dat_o[24] 0
13 *591:19 *624:14 3.88221e-05
14 *592:15 *624:10 0
15 *595:17 *624:14 0
16 *614:24 *624:14 0
17 *615:16 *624:14 0
18 *623:18 *624:14 0
*RES
1 *897:wbs_dat_o[24] *624:8 3.63087 
2 *624:8 *624:10 75.5769 
3 *624:10 *624:12 0.5 
4 *624:12 *624:14 55.9449 
5 *624:14 wbs_dat_o[24] 13.2575 
*END

*D_NET *625 0.162485
*CONN
*P wbs_dat_o[25] O
*I *897:wbs_dat_o[25] O *D soc_sys
*CAP
1 wbs_dat_o[25] 0.00216389
2 *897:wbs_dat_o[25] 4.44474e-05
3 *625:14 0.0114027
4 *625:12 0.00923884
5 *625:10 0.0197966
6 *625:8 0.0198411
7 wbs_dat_o[25] wbs_dat_o[26] 0.000424839
8 wbs_dat_o[25] wbs_dat_o[27] 0.000502571
9 wbs_dat_o[22] wbs_dat_o[25] 0.00166089
10 *78:21 *625:8 4.29667e-05
11 *561:19 *625:10 0.0355688
12 *563:13 wbs_dat_o[25] 0
13 *591:19 *625:14 0.0298025
14 *595:15 wbs_dat_o[25] 0.000285
15 *596:9 wbs_dat_o[25] 0
16 *599:11 *625:14 0
17 *624:14 *625:14 0.0317099
*RES
1 *897:wbs_dat_o[25] *625:8 1.1254 
2 *625:8 *625:10 75.4908 
3 *625:10 *625:12 0.5 
4 *625:12 *625:14 55.3622 
5 *625:14 wbs_dat_o[25] 21.111 
*END

*D_NET *626 0.15543
*CONN
*P wbs_dat_o[26] O
*I *897:wbs_dat_o[26] O *D soc_sys
*CAP
1 wbs_dat_o[26] 0.00201561
2 *897:wbs_dat_o[26] 4.44474e-05
3 *626:18 0.00546958
4 *626:16 0.00345397
5 *626:14 0.00917599
6 *626:12 0.00917599
7 *626:10 0.0165052
8 *626:8 0.0165496
9 wbs_dat_o[26] wbs_dat_o[27] 0.00255055
10 wbs_dat_o[26] *631:14 0.00273526
11 *626:14 *627:16 0
12 wbs_dat_o[22] wbs_dat_o[26] 3.56092e-05
13 wbs_dat_o[25] wbs_dat_o[26] 0.000424839
14 *31:21 *626:14 0.00567732
15 *66:13 *626:14 0.0103316
16 *78:21 *626:8 4.29667e-05
17 *557:11 *626:14 0.0201417
18 *559:11 wbs_dat_o[26] 0.00873151
19 *562:15 *626:10 0.0368454
20 *593:15 *626:14 0.00492073
21 *595:15 wbs_dat_o[26] 0.000548551
22 *622:22 wbs_dat_o[26] 5.33545e-05
*RES
1 *897:wbs_dat_o[26] *626:8 1.1254 
2 *626:8 *626:10 67.4804 
3 *626:10 *626:12 0.5 
4 *626:12 *626:14 49.5938 
5 *626:14 *626:16 0.5 
6 *626:16 *626:18 58.755 
7 *626:18 wbs_dat_o[26] 15.734 
*END

*D_NET *627 0.11998
*CONN
*P wbs_dat_o[27] O
*I *897:wbs_dat_o[27] O *D soc_sys
*CAP
1 wbs_dat_o[27] 0.00768021
2 *897:wbs_dat_o[27] 2.45626e-05
3 *627:18 0.0108724
4 *627:16 0.0167042
5 *627:10 0.0388398
6 *627:8 0.0253524
7 wbs_dat_o[27] *631:14 0.016269
8 *627:8 *718:15 4.21127e-05
9 wbs_dat_o[25] wbs_dat_o[27] 0.000502571
10 wbs_dat_o[26] wbs_dat_o[27] 0.00255055
11 *588:21 *627:16 0.000999383
12 *593:15 *627:16 0
13 *595:15 wbs_dat_o[27] 2.60489e-05
14 *618:16 *627:16 0.000116508
15 *626:14 *627:16 0
*RES
1 *897:wbs_dat_o[27] *627:8 1.06713 
2 *627:8 *627:10 68.2556 
3 *627:10 *627:16 34.6287 
4 *627:16 *627:18 55.185 
5 *627:18 wbs_dat_o[27] 33.177 
*END

*D_NET *628 0.132442
*CONN
*P wbs_dat_o[28] O
*I *897:wbs_dat_o[28] O *D soc_sys
*CAP
1 wbs_dat_o[28] 0.00136689
2 *897:wbs_dat_o[28] 0.000494408
3 *628:18 0.0184578
4 *628:16 0.0170909
5 *628:14 0.027483
6 *628:12 0.0279774
7 *628:12 *709:15 0.000408207
8 *628:12 *718:15 0.00104352
9 *628:14 *709:17 1.39277e-05
10 *897:wbs_dat_i[28] *628:12 8.02886e-05
11 *560:11 *628:18 0
12 *562:11 *628:18 0.0380253
13 *563:15 *628:18 0
14 *563:19 *628:14 0
15 *564:9 wbs_dat_o[28] 0
16 *584:19 *628:18 0
17 *596:19 *628:14 0
18 *599:11 *628:18 0
*RES
1 *897:wbs_dat_o[28] *628:12 3.21033 
2 *628:12 *628:14 73.682 
3 *628:14 *628:16 0.5 
4 *628:16 *628:18 64.3353 
5 *628:18 wbs_dat_o[28] 23.9675 
*END

*D_NET *629 0.150162
*CONN
*P wbs_dat_o[29] O
*I *897:wbs_dat_o[29] O *D soc_sys
*CAP
1 wbs_dat_o[29] 0.00152643
2 *897:wbs_dat_o[29] 0.000165881
3 *629:20 0.00391504
4 *629:14 0.0119713
5 *629:12 0.00958269
6 *629:10 0.0247256
7 *629:8 0.0248915
8 *629:8 *718:15 0.000569542
9 *629:8 *735:15 0.000307411
10 *629:10 *735:17 0.000100798
11 *31:21 *629:14 0.00743922
12 *33:21 *629:14 0.0260395
13 *37:17 *629:14 2.22315e-05
14 *66:13 *629:14 0.00296809
15 *594:15 *629:14 0.0359371
*RES
1 *897:wbs_dat_o[29] *629:8 1.88287 
2 *629:8 *629:10 66.7913 
3 *629:10 *629:12 0.5 
4 *629:12 *629:14 67.6565 
5 *629:14 *629:20 40.04 
6 *629:20 wbs_dat_o[29] 25.4475 
*END

*D_NET *630 0.0779342
*CONN
*P wbs_dat_o[2] O
*I *897:wbs_dat_o[2] O *D soc_sys
*CAP
1 wbs_dat_o[2] 0.00399525
2 *897:wbs_dat_o[2] 0.00145278
3 *630:18 0.0338653
4 *630:16 0.0313228
5 wbs_dat_o[2] *641:13 8.59615e-05
6 *630:18 wbs_dat_o[5] 0.00105662
7 *897:wb_clk_i *630:16 0.00132773
8 *897:wbs_adr_i[0] *630:16 0.000940348
9 *897:wbs_dat_i[2] *630:16 4.21127e-05
10 *78:19 *630:16 0.000698561
11 *125:32 *630:16 0.000133395
12 *541:45 *630:18 0
13 *542:28 *630:16 0.00292742
14 *576:11 wbs_dat_o[2] 8.59615e-05
15 *619:10 *630:18 0
*RES
1 *897:wbs_dat_o[2] *630:16 8.81087 
2 *630:16 *630:18 77.2996 
3 *630:18 wbs_dat_o[2] 3.41983 
*END

*D_NET *631 0.131888
*CONN
*P wbs_dat_o[30] O
*I *897:wbs_dat_o[30] O *D soc_sys
*CAP
1 wbs_dat_o[30] 6.20697e-05
2 *897:wbs_dat_o[30] 9.74641e-05
3 *631:14 0.0166965
4 *631:12 0.0166344
5 *631:10 0.0288217
6 *631:8 0.0289191
7 *631:8 *676:23 0.000580979
8 *631:8 *718:15 0.000580979
9 wbs_dat_o[26] *631:14 0.00273526
10 wbs_dat_o[27] *631:14 0.016269
11 *529:9 *631:14 0.00379602
12 *530:11 *631:14 0.00442857
13 *559:11 *631:14 0.0122664
*RES
1 *897:wbs_dat_o[30] *631:8 1.88287 
2 *631:8 *631:10 77.4719 
3 *631:10 *631:12 0.5 
4 *631:12 *631:14 69.4627 
5 *631:14 wbs_dat_o[30] 1.5875 
*END

*D_NET *632 0.172038
*CONN
*P wbs_dat_o[31] O
*I *897:wbs_dat_o[31] O *D soc_sys
*CAP
1 wbs_dat_o[31] 0.00231264
2 *897:wbs_dat_o[31] 0.000538567
3 *632:22 0.0185962
4 *632:20 0.0162836
5 *632:18 0.0150316
6 *632:16 0.0155701
7 *632:16 *676:23 0.00073112
8 *632:16 *709:15 0.000846283
9 *632:16 *718:15 0.00073112
10 *632:16 *735:15 0.000843671
11 *632:16 *768:14 9.88725e-06
12 *531:5 *632:18 0.000411623
13 *564:11 *632:22 0
14 *567:11 *632:22 0.0455438
15 *567:15 *632:18 0.00496692
16 *600:15 *632:18 0.0378018
17 *617:16 *632:22 0.0118186
*RES
1 *897:wbs_dat_o[31] *632:16 4.7322 
2 *632:16 *632:18 70.8396 
3 *632:18 *632:20 0.5 
4 *632:20 *632:22 70.1619 
5 *632:22 wbs_dat_o[31] 39.5975 
*END

*D_NET *633 0.09645
*CONN
*P wbs_dat_o[3] O
*I *897:wbs_dat_o[3] O *D soc_sys
*CAP
1 wbs_dat_o[3] 0.000412564
2 *897:wbs_dat_o[3] 2.12332e-05
3 *633:20 0.00294414
4 *633:16 0.0078944
5 *633:10 0.020486
6 *633:8 0.0151444
7 *633:10 *634:18 0.00474962
8 *633:10 *643:15 0.0376639
9 *633:16 *635:16 0
10 *633:16 *637:16 0.00509921
11 *633:20 *643:13 7.77019e-05
12 *897:wb_clk_i *633:8 8.02886e-05
13 *78:21 *633:8 8.02886e-05
14 *568:11 wbs_dat_o[3] 0
15 *569:9 *633:20 0
16 *587:15 *633:20 0.00179627
*RES
1 *897:wbs_dat_o[3] *633:8 1.1254 
2 *633:8 *633:10 69.5476 
3 *633:10 *633:16 17.4401 
4 *633:16 *633:20 48.1325 
5 *633:20 wbs_dat_o[3] 8.495 
*END

*D_NET *634 0.079452
*CONN
*P wbs_dat_o[4] O
*I *897:wbs_dat_o[4] O *D soc_sys
*CAP
1 wbs_dat_o[4] 0.00644969
2 *897:wbs_dat_o[4] 0.00181524
3 *634:18 0.0315407
4 *634:16 0.0269062
5 *634:18 *643:15 0
6 *897:wb_clk_i *634:16 0.000885511
7 *897:wbs_adr_i[3] *634:16 0.00122857
8 *897:wbs_dat_i[4] *634:16 0.000784974
9 *69:17 *634:18 0.00418849
10 *78:21 *634:16 0.000885511
11 *602:13 wbs_dat_o[4] 0
12 *603:15 *634:16 1.74783e-05
13 *633:10 *634:18 0.00474962
*RES
1 *897:wbs_dat_o[4] *634:16 8.43087 
2 *634:16 *634:18 75.3185 
3 *634:18 wbs_dat_o[4] 27.5121 
*END

*D_NET *635 0.0797148
*CONN
*P wbs_dat_o[5] O
*I *897:wbs_dat_o[5] O *D soc_sys
*CAP
1 wbs_dat_o[5] 0.00248749
2 *897:wbs_dat_o[5] 2.12332e-05
3 *635:16 0.0109223
4 *635:10 0.0284075
5 *635:8 0.0199939
6 *897:wb_clk_i *635:8 8.02886e-05
7 *78:21 *635:8 8.02886e-05
8 *540:23 *635:10 0
9 *547:13 *635:16 0.00150624
10 *568:23 *635:10 0.015159
11 *578:19 *635:16 0
12 *603:13 *635:16 0
13 *610:16 *635:16 0
14 *630:18 wbs_dat_o[5] 0.00105662
15 *633:16 *635:16 0
*RES
1 *897:wbs_dat_o[5] *635:8 1.1254 
2 *635:8 *635:10 70.4089 
3 *635:10 *635:16 22.9754 
4 *635:16 wbs_dat_o[5] 43.6875 
*END

*D_NET *636 0.0834961
*CONN
*P wbs_dat_o[6] O
*I *897:wbs_dat_o[6] O *D soc_sys
*CAP
1 wbs_dat_o[6] 0.00730847
2 *897:wbs_dat_o[6] 0.000169733
3 *636:10 0.0345556
4 *636:8 0.0274168
5 wbs_dat_o[6] *643:13 0
6 *78:21 *636:8 0.000187939
7 *81:14 *636:10 0.00480126
8 *572:13 wbs_dat_o[6] 0
9 *577:13 wbs_dat_o[6] 0.000632038
10 *602:13 wbs_dat_o[6] 0.00762041
11 *604:15 *636:10 0
12 *607:13 wbs_dat_o[6] 0.000211694
13 *614:24 wbs_dat_o[6] 0.000366551
14 *615:16 wbs_dat_o[6] 0.000225668
*RES
1 *897:wbs_dat_o[6] *636:8 1.53327 
2 *636:8 *636:10 76.4383 
3 *636:10 wbs_dat_o[6] 31.6234 
*END

*D_NET *637 0.0876292
*CONN
*P wbs_dat_o[7] O
*I *897:wbs_dat_o[7] O *D soc_sys
*CAP
1 wbs_dat_o[7] 0.00280978
2 *897:wbs_dat_o[7] 2.74782e-05
3 *637:16 0.00955498
4 *637:10 0.0306311
5 *637:8 0.0239134
6 *78:21 *637:8 2.20023e-05
7 *553:13 *637:16 0.000198519
8 *573:19 *637:10 0.00452895
9 *578:19 *637:16 0.0108437
10 *605:13 wbs_dat_o[7] 0
11 *633:16 *637:16 0.00509921
*RES
1 *897:wbs_dat_o[7] *637:8 1.06713 
2 *637:8 *637:10 69.3753 
3 *637:10 *637:16 26.7045 
4 *637:16 wbs_dat_o[7] 49.2975 
*END

*D_NET *638 0.10335
*CONN
*P wbs_dat_o[8] O
*I *897:wbs_dat_o[8] O *D soc_sys
*CAP
1 wbs_dat_o[8] 5.76165e-05
2 *897:wbs_dat_o[8] 0.000485647
3 *638:18 0.00308211
4 *638:16 0.0117541
5 *638:10 0.0254024
6 *638:8 0.0171584
7 *897:wbs_dat_i[8] *638:8 0.000349893
8 *78:21 *638:8 0.00125069
9 *553:13 *638:16 0
10 *555:11 *638:16 0.000230735
11 *574:17 *638:16 0
12 *577:21 *638:16 0.00626731
13 *606:9 *638:18 0
14 *606:15 *638:10 0.0373114
*RES
1 *897:wbs_dat_o[8] *638:8 2.93167 
2 *638:8 *638:10 68.514 
3 *638:10 *638:16 26.821 
4 *638:16 *638:18 53.655 
5 *638:18 wbs_dat_o[8] 0.7425 
*END

*D_NET *639 0.0871532
*CONN
*P wbs_dat_o[9] O
*I *897:wbs_dat_o[9] O *D soc_sys
*CAP
1 wbs_dat_o[9] 0.00145631
2 *897:wbs_dat_o[9] 0.00034388
3 *639:20 0.00408877
4 *639:16 0.0112638
5 *639:10 0.0311463
6 *639:8 0.0228589
7 *39:37 *639:16 0.000144638
8 *78:21 *639:8 0.000345221
9 *143:39 *639:16 0
10 *556:15 *639:16 0.00201737
11 *607:15 *639:20 0
12 *607:21 *639:16 0.00884783
13 *607:23 *639:10 0.00464021
*RES
1 *897:wbs_dat_o[9] *639:8 1.9994 
2 *639:8 *639:10 65.7577 
3 *639:10 *639:16 29.5595 
4 *639:16 *639:20 45.66 
5 *639:20 wbs_dat_o[9] 25.4475 
*END

*D_NET *640 0.079225
*CONN
*P wbs_sel_i[0] I
*I *897:wbs_sel_i[0] I *D soc_sys
*CAP
1 wbs_sel_i[0] 0.00205029
2 *897:wbs_sel_i[0] 2.12332e-05
3 *640:19 0.0205134
4 *640:17 0.021714
5 *640:13 0.00398827
6 *640:9 0.00481668
7 *43:33 *640:17 0.00661875
8 *78:19 *897:wbs_sel_i[0] 8.02886e-05
9 *111:25 *640:19 0.01132
10 *118:43 *640:17 0.00122227
11 *129:45 *897:wbs_sel_i[0] 8.02886e-05
12 *540:19 *640:17 0.00679953
13 *554:13 *640:9 0
14 *587:15 *640:19 0
*RES
1 wbs_sel_i[0] *640:9 37.1025 
2 *640:9 *640:13 48.785 
3 *640:13 *640:17 10.6473 
4 *640:17 *640:19 63.6044 
5 *640:19 *897:wbs_sel_i[0] 1.1254 
*END

*D_NET *641 0.0788884
*CONN
*P wbs_sel_i[1] I
*I *897:wbs_sel_i[1] I *D soc_sys
*CAP
1 wbs_sel_i[1] 0.00167058
2 *897:wbs_sel_i[1] 1.71572e-05
3 *641:15 0.0273214
4 *641:13 0.0289748
5 *641:13 *642:13 0.000371959
6 wbs_dat_o[1] *641:13 0.000242908
7 wbs_dat_o[2] *641:13 8.59615e-05
8 *897:wb_clk_i *897:wbs_sel_i[1] 4.21127e-05
9 *78:19 *897:wbs_sel_i[1] 2.20023e-05
10 *543:15 *641:15 0
11 *565:13 *641:13 0.00785166
12 *565:15 *641:15 0.00523286
13 *576:11 *641:13 0.00150589
14 *598:15 *641:13 0.00554913
*RES
1 wbs_sel_i[1] *641:13 15.4089 
2 *641:13 *641:15 77.4719 
3 *641:15 *897:wbs_sel_i[1] 1.06713 
*END

*D_NET *642 0.0784626
*CONN
*P wbs_sel_i[2] I
*I *897:wbs_sel_i[2] I *D soc_sys
*CAP
1 wbs_sel_i[2] 0.000604838
2 *897:wbs_sel_i[2] 2.58764e-05
3 *642:23 0.0262291
4 *642:21 0.0293603
5 *642:15 0.00758766
6 *642:13 0.00503534
7 *897:wb_clk_i *897:wbs_sel_i[2] 8.02886e-05
8 *78:19 *897:wbs_sel_i[2] 4.29667e-05
9 *113:13 *642:21 0.00279642
10 *141:13 *642:21 0.00213485
11 *568:11 *642:13 0.000107704
12 *573:17 *642:21 0.00171841
13 *576:13 *642:15 0.00236686
14 *641:13 *642:13 0.000371959
*RES
1 wbs_sel_i[2] *642:13 14.725 
2 *642:13 *642:15 78.5175 
3 *642:15 *642:21 14.9929 
4 *642:21 *642:23 64.2935 
5 *642:23 *897:wbs_sel_i[2] 1.1254 
*END

*D_NET *643 0.097945
*CONN
*P wbs_sel_i[3] I
*I *897:wbs_sel_i[3] I *D soc_sys
*CAP
1 wbs_sel_i[3] 0.00480973
2 *897:wbs_sel_i[3] 0.000184599
3 *643:15 0.0204555
4 *643:13 0.0250806
5 wbs_dat_o[1] *643:13 0.000806572
6 wbs_dat_o[6] *643:13 0
7 *897:wb_clk_i *897:wbs_sel_i[3] 0.000796366
8 *78:21 *897:wbs_sel_i[3] 0.000796366
9 *543:13 *643:13 0.00376833
10 *545:13 *643:15 0.000232432
11 *554:13 *643:13 0.00088826
12 *565:13 *643:13 0.000374599
13 *569:9 *643:13 0
14 *577:13 *643:13 0.00101736
15 *598:15 *643:13 0
16 *601:11 *643:13 0
17 *602:13 *643:13 0
18 *607:13 *643:13 0.000992596
19 *633:10 *643:15 0.0376639
20 *633:20 *643:13 7.77019e-05
21 *634:18 *643:15 0
*RES
1 wbs_sel_i[3] *643:13 22.0376 
2 *643:13 *643:15 77.0412 
3 *643:15 *897:wbs_sel_i[3] 2.23247 
*END

*D_NET *644 0.0696224
*CONN
*P wbs_stb_i I
*I *897:wbs_stb_i I *D soc_sys
*CAP
1 wbs_stb_i 0.00144592
2 *897:wbs_stb_i 0.000137239
3 *644:19 0.0223697
4 *644:17 0.022964
5 *644:11 0.00422516
6 *644:9 0.00493958
7 *644:19 *645:13 0
8 *897:wb_clk_i *897:wbs_stb_i 0.000658008
9 *897:wbs_cyc_i *644:19 0.00352269
10 *40:35 *644:17 0.00243864
11 *78:19 *897:wbs_stb_i 0.000363252
12 *84:24 *644:19 0.000957093
13 *104:22 *644:17 0.000831568
14 *109:21 *644:17 0.000274882
15 *118:43 *644:17 0.000595564
16 *542:36 *644:17 0.0038992
*RES
1 wbs_stb_i *644:9 26.2425 
2 *644:9 *644:11 61.185 
3 *644:11 *644:17 6.83553 
4 *644:17 *644:19 63.0876 
5 *644:19 *897:wbs_stb_i 1.9994 
*END

*D_NET *645 0.0726998
*CONN
*P wbs_we_i I
*I *897:wbs_we_i I *D soc_sys
*CAP
1 wbs_we_i 0.00171972
2 *897:wbs_we_i 0.00409169
3 *645:13 0.0294386
4 *645:11 0.0270666
5 *897:wb_clk_i *897:wbs_we_i 0.000530689
6 *71:23 *645:13 0.000722078
7 *78:19 *897:wbs_we_i 0.000285671
8 *80:20 *897:wbs_we_i 0.000452158
9 *84:24 *645:13 0.000623848
10 *85:20 *897:wbs_we_i 3.67965e-05
11 *121:23 *897:wbs_we_i 0.000167637
12 *129:51 *897:wbs_we_i 4.4195e-05
13 *543:13 *645:11 0
14 *576:11 *645:11 0.00282314
15 *608:25 *897:wbs_we_i 0.00469701
16 *644:19 *645:13 0
*RES
1 wbs_we_i *645:11 7.8065 
2 *645:11 *645:13 66.5329 
3 *645:13 *897:wbs_we_i 13.5537 
*END

*D_NET *646 0.444029
*CONN
*I *897:adc_data[0] I *D soc_sys
*I *892:data_out[0] O *D CF_ADC_SAR12
*CAP
1 *897:adc_data[0] 8.00928e-05
2 *892:data_out[0] 0.00199768
3 *646:30 0.00934762
4 *646:28 0.00941427
5 *646:22 0.00877035
6 *646:20 0.00862361
7 *646:18 0.00283286
8 *646:16 0.00307784
9 *646:10 0.0179597
10 *646:8 0.0197124
11 *646:8 *892:sel_csel_dft[0] 0.0102582
12 *646:8 *892:pd 0.000301051
13 *646:8 *892:dft_outc[1] 0.00149489
14 *646:8 *647:23 0.00815714
15 *646:8 *648:19 0.000689503
16 *646:10 *648:21 0.0544638
17 *646:10 *701:9 0.0171591
18 *646:10 *719:9 0.00954128
19 *646:10 *769:9 0.00051097
20 *646:18 *650:35 0.00243386
21 *646:18 *829:21 0.0161174
22 *646:18 *869:9 0.0161187
23 *646:22 *647:31 0.000740471
24 *646:22 *649:17 0.0369367
25 *646:22 *649:25 0.00304077
26 *646:28 *897:adc_data[8] 0
27 *646:30 *897:adc_data[4] 0.00414501
28 *646:30 *650:45 0.0378535
29 *646:30 *655:33 0.0060583
30 *40:25 *646:22 0.0484359
31 *43:25 *646:22 0.000689918
32 *109:21 *646:22 0
33 *109:21 *646:30 0.00442521
34 *114:29 *646:30 0.0163965
35 *118:43 *646:30 0.00372518
36 *118:45 *646:30 0.00823052
37 *540:19 *646:30 0.0243261
38 *540:48 *646:30 0.000496363
39 *540:50 *646:22 0.0072153
40 *541:21 *646:30 0.00847912
41 *541:27 *646:30 0.0113046
42 *542:36 *646:30 0.00246755
*RES
1 *892:data_out[0] *646:8 16.4951 
2 *646:8 *646:10 614.528 
3 *646:10 *646:16 7.21 
4 *646:16 *646:18 181.92 
5 *646:18 *646:20 2 
6 *646:20 *646:22 448.605 
7 *646:22 *646:28 4.5175 
8 *646:28 *646:30 75.5516 
9 *646:30 *897:adc_data[0] 1.5725 
*END

*D_NET *647 0.260111
*CONN
*I *897:adc_data[10] I *D soc_sys
*I *892:data_out[10] O *D CF_ADC_SAR12
*CAP
1 *897:adc_data[10] 0
2 *892:data_out[10] 0.00204995
3 *647:33 0.00694887
4 *647:31 0.00778499
5 *647:25 0.0185383
6 *647:23 0.0197521
7 *647:23 *892:sample_width[5] 3.92756e-05
8 *647:23 *892:pd 0.000304227
9 *647:23 *892:dft_outc[1] 0.00117612
10 *647:23 *648:19 0.00745538
11 *647:23 *657:7 0.000114424
12 *647:23 *726:13 3.92756e-05
13 *647:25 *665:9 0.00220937
14 *647:25 *670:9 0.0548992
15 *647:25 *687:9 0.0632138
16 *647:25 *770:9 0
17 *647:25 *791:9 0
18 *647:31 *897:adc_data[11] 0.00065685
19 *647:31 *897:adc_data[4] 0.000769724
20 *647:31 *649:17 0.000670442
21 *647:31 *656:29 0.000408683
22 *647:31 *819:19 0.000501852
23 *647:33 *897:adc_data[11] 0.0265708
24 *647:33 *897:adc_data[4] 0.00598554
25 *647:33 *650:45 0.006564
26 *647:33 *656:29 3.16829e-05
27 *40:21 *647:25 0
28 *109:21 *647:33 0.00143004
29 *118:55 *647:31 0.000554639
30 *540:50 *647:31 0.00359671
31 *540:50 *647:33 0.0189468
32 *646:8 *647:23 0.00815714
33 *646:22 *647:31 0.000740471
*RES
1 *892:data_out[10] *647:23 17.0902 
2 *647:23 *647:25 797.235 
3 *647:25 *647:31 5.99353 
4 *647:31 *647:33 49.5938 
5 *647:33 *897:adc_data[10] 0.5 
*END

*D_NET *648 0.281802
*CONN
*I *897:adc_data[11] I *D soc_sys
*I *892:data_out[11] O *D CF_ADC_SAR12
*CAP
1 *897:adc_data[11] 0.0051453
2 *892:data_out[11] 0.00241732
3 *648:37 0.0111227
4 *648:35 0.00804183
5 *648:21 0.0117909
6 *648:19 0.0121438
7 *897:adc_data[11] *897:adc_data[4] 0.00484128
8 *897:adc_data[11] *650:37 0.00454621
9 *897:adc_data[11] *650:43 7.96104e-06
10 *897:adc_data[11] *651:33 0.00494786
11 *897:adc_data[11] *656:29 0.028074
12 *648:19 *892:sample_width[5] 0.000683914
13 *648:19 *892:test_sea 2.00064e-05
14 *648:19 *892:iso_en 0.006823
15 *648:19 *892:pd 0.00102844
16 *648:19 *892:dft_outc[1] 0.00144897
17 *648:19 *726:13 0.000683914
18 *648:21 *693:9 7.1163e-05
19 *648:21 *701:9 0.00101029
20 *648:21 *719:9 0.00976316
21 *648:21 *731:9 0.0561934
22 *648:35 *676:9 1.87328e-05
23 *648:35 *712:9 1.79536e-05
24 *648:35 *772:11 0
25 *648:35 *775:7 0.000728712
26 *648:35 *778:7 0.000853354
27 *648:37 *699:19 0
28 *648:37 *776:11 0
29 *648:37 *787:11 0.00731769
30 *67:257 *648:37 0.00599284
31 *74:77 *648:37 0.00577737
32 *118:55 *897:adc_data[11] 0.000340034
33 *118:67 *648:37 0.000113828
34 *646:8 *648:19 0.000689503
35 *646:10 *648:21 0.0544638
36 *647:23 *648:19 0.00745538
37 *647:31 *897:adc_data[11] 0.00065685
38 *647:33 *897:adc_data[11] 0.0265708
*RES
1 *892:data_out[11] *648:19 18.3113 
2 *648:19 *648:21 635.565 
3 *648:21 *648:35 15.4894 
4 *648:35 *648:37 163.178 
5 *648:37 *897:adc_data[11] 46.0142 
*END

*D_NET *649 0.372338
*CONN
*I *897:adc_data[1] I *D soc_sys
*I *892:data_out[1] O *D CF_ADC_SAR12
*CAP
1 *897:adc_data[1] 0
2 *892:data_out[1] 0.000176424
3 *649:25 0.0118232
4 *649:23 0.0118419
5 *649:17 0.00716567
6 *649:15 0.00714691
7 *649:13 0.0224195
8 *649:11 0.0224195
9 *649:9 0.00151069
10 *649:7 0.00168712
11 *649:7 *650:11 0.00017339
12 *649:7 *658:19 0.000109468
13 *649:9 *892:hiz 0.000821902
14 *649:9 *650:13 0.00916364
15 *649:9 *651:9 0.00960805
16 *649:9 *695:13 6.04372e-05
17 *649:9 *723:13 4.12775e-05
18 *649:9 *728:43 0.000947919
19 *649:13 *652:33 0.0175505
20 *649:13 *681:9 0
21 *649:13 *684:9 0
22 *649:13 *688:9 0.0106641
23 *649:13 *693:9 0.0631255
24 *649:13 *747:9 0
25 *649:13 *817:9 0.0196663
26 *649:13 *840:21 0
27 *649:17 *650:37 0.00219983
28 *649:17 *651:33 0.00998141
29 *649:25 *897:adc_data[4] 0.00698644
30 *649:25 *897:adc_data[5] 0.000311539
31 *649:25 *650:45 0.0278188
32 *43:23 *649:25 0.000318344
33 *104:22 *649:25 0.0105655
34 *109:21 *649:17 0.000833191
35 *109:21 *649:25 0.000387226
36 *118:43 *649:25 0.00017859
37 *540:50 *649:17 0.00786726
38 *540:50 *649:25 0.0387567
39 *542:36 *649:25 0.00736214
40 *646:22 *649:17 0.0369367
41 *646:22 *649:25 0.00304077
42 *647:31 *649:17 0.000670442
*RES
1 *892:data_out[1] *649:7 6.005 
2 *649:7 *649:9 89.805 
3 *649:9 *649:11 2 
4 *649:11 *649:13 804.12 
5 *649:13 *649:15 2 
6 *649:15 *649:17 336.48 
7 *649:17 *649:23 2.7325 
8 *649:23 *649:25 85.2821 
9 *649:25 *897:adc_data[1] 0.5 
*END

*D_NET *650 0.388793
*CONN
*I *897:adc_data[2] I *D soc_sys
*I *892:data_out[2] O *D CF_ADC_SAR12
*CAP
1 *897:adc_data[2] 3.89524e-05
2 *892:data_out[2] 0.00017807
3 *650:45 0.0115093
4 *650:43 0.011487
5 *650:37 0.00419369
6 *650:35 0.0154507
7 *650:17 0.0292996
8 *650:15 0.018026
9 *650:13 0.00141671
10 *650:11 0.00159478
11 *650:11 *651:7 0.000294211
12 *650:11 *652:11 1.81185e-05
13 *650:13 *657:19 0.000101392
14 *650:13 *672:21 0
15 *650:13 *694:23 0.000350314
16 *650:13 *719:21 0.00113231
17 *650:13 *723:13 0.00867605
18 *650:17 *656:25 0.052952
19 *650:17 *673:17 0.000216897
20 *650:17 *711:9 0.0150666
21 *650:17 *747:9 0
22 *650:17 *762:17 0.010929
23 *650:35 *897:sram_dat_i[0] 0.000254124
24 *650:35 *898:wbs_dat_i[2] 0.00015711
25 *650:35 *652:33 0.00605271
26 *650:35 *656:25 3.83985e-05
27 *650:35 *736:11 0.00691436
28 *650:35 *783:15 0.00301069
29 *650:35 *788:13 0.001085
30 *650:35 *790:17 0
31 *650:35 *819:19 0.000277862
32 *650:35 *829:21 0.00203394
33 *650:35 *854:7 2.36687e-05
34 *650:35 *859:7 0.000168903
35 *650:35 *859:9 0.0015942
36 *650:35 *869:9 0.0021766
37 *650:35 *881:9 0.00148356
38 *650:37 *651:33 0.0235543
39 *650:37 *656:29 0.00154755
40 *650:37 *819:19 0.000202771
41 *650:45 *897:adc_data[4] 0.00793885
42 *650:45 *897:adc_data[5] 0.000316036
43 *650:45 *655:33 0.000172723
44 *650:45 *656:29 0.01932
45 *897:adc_data[11] *650:37 0.00454621
46 *897:adc_data[11] *650:43 7.96104e-06
47 *43:23 *650:45 0.000325612
48 *43:25 *650:45 0.00517153
49 *109:21 *650:37 0.030076
50 *118:43 *650:45 0.000107174
51 *540:50 *650:35 6.34015e-05
52 *540:50 *650:45 5.84154e-05
53 *542:36 *650:45 0.000974729
54 *646:18 *650:35 0.00243386
55 *646:30 *650:45 0.0378535
56 *647:33 *650:45 0.006564
57 *649:7 *650:11 0.00017339
58 *649:9 *650:13 0.00916364
59 *649:17 *650:37 0.00219983
60 *649:25 *650:45 0.0278188
*RES
1 *892:data_out[2] *650:11 6.6425 
2 *650:11 *650:13 84.63 
3 *650:13 *650:15 2 
4 *650:15 *650:17 602.542 
5 *650:17 *650:35 39.5539 
6 *650:35 *650:37 272.655 
7 *650:37 *650:43 2.7325 
8 *650:43 *650:45 85.8065 
9 *650:45 *897:adc_data[2] 1.0625 
*END

*D_NET *651 0.335813
*CONN
*I *897:adc_data[3] I *D soc_sys
*I *892:data_out[3] O *D CF_ADC_SAR12
*CAP
1 *897:adc_data[3] 0.000216062
2 *892:data_out[3] 0.000114105
3 *651:41 0.0134837
4 *651:39 0.0134938
5 *651:33 0.00467148
6 *651:31 0.0166821
7 *651:13 0.0355951
8 *651:11 0.0233583
9 *651:9 0.00158993
10 *651:7 0.00170403
11 *651:7 *652:11 0.000292981
12 *651:9 *892:hiz 0.000739552
13 *651:9 *695:13 0.0102066
14 *651:9 *728:43 0.000924872
15 *651:13 *658:21 0.0178294
16 *651:13 *691:9 0.0163803
17 *651:13 *697:19 3.72899e-05
18 *651:13 *709:9 0.0147912
19 *651:13 *735:9 4.79496e-05
20 *651:13 *769:9 0
21 *651:13 *840:21 0
22 *651:13 *852:13 0
23 *651:13 *865:9 0
24 *651:13 *872:9 0
25 *651:31 *897:sram_dat_i[0] 0.000102788
26 *651:31 *898:wbs_dat_i[2] 0.000270343
27 *651:31 *658:21 0.0033375
28 *651:31 *697:9 0.00096751
29 *651:31 *718:11 0.0085162
30 *651:31 *757:19 0
31 *651:31 *819:19 0.000276129
32 *651:31 *823:17 0.00228158
33 *651:31 *848:23 0.00155324
34 *651:31 *850:13 0.00108259
35 *651:31 *854:7 0.000100046
36 *651:31 *858:9 0.00108259
37 *651:31 *868:9 0.00245173
38 *651:31 *888:21 0
39 *651:31 *891:9 0
40 *651:33 *656:29 0.000117568
41 *651:33 *819:19 0.000221223
42 *651:41 *897:adc_data[6] 0.0163167
43 *651:41 *897:adc_eof 0.000523504
44 *651:41 *657:25 0.0190903
45 *897:adc_data[11] *651:33 0.00494786
46 *43:33 *651:41 0.0123331
47 *44:25 *651:41 0.0196217
48 *65:21 *651:41 0.00961364
49 *109:21 *651:33 0.000598554
50 *541:27 *651:41 0.0148099
51 *649:9 *651:9 0.00960805
52 *649:17 *651:33 0.00998141
53 *650:11 *651:7 0.000294211
54 *650:37 *651:33 0.0235543
*RES
1 *892:data_out[3] *651:7 5.75 
2 *651:7 *651:9 94.29 
3 *651:9 *651:11 2 
4 *651:11 *651:13 601.523 
5 *651:13 *651:31 39.3268 
6 *651:31 *651:33 223.32 
7 *651:33 *651:39 5.5375 
8 *651:39 *651:41 86.2727 
9 *651:41 *897:adc_data[3] 3.6125 
*END

*D_NET *652 0.41829
*CONN
*I *897:adc_data[4] I *D soc_sys
*I *892:data_out[4] O *D CF_ADC_SAR12
*CAP
1 *897:adc_data[4] 0.0729861
2 *892:data_out[4] 0.000286708
3 *652:33 0.112441
4 *652:31 0.0406996
5 *652:13 0.00216998
6 *652:11 0.00121158
7 *897:adc_data[4] *655:33 0.00708836
8 *897:adc_data[4] *656:29 0.00895531
9 *652:13 *892:sample_width[0] 0.000147489
10 *652:13 *657:9 0.00608354
11 *652:13 *694:23 0.00132668
12 *652:13 *723:13 0.0067196
13 *652:13 *775:21 0.000259468
14 *652:31 *892:sample_width[0] 2.1352e-05
15 *652:31 *657:19 0.000418195
16 *652:31 *695:13 0.000212004
17 *652:31 *696:13 0.000101386
18 *652:31 *719:21 0.00254495
19 *652:31 *728:43 0.00250768
20 *652:31 *777:9 1.65398e-05
21 *652:33 *897:sram_dat_i[11] 0.00403903
22 *652:33 *658:21 0
23 *652:33 *672:9 0
24 *652:33 *684:9 0.000780634
25 *652:33 *688:9 0.00268195
26 *652:33 *693:9 0.0115905
27 *652:33 *719:9 0.0359108
28 *652:33 *736:11 0.00221378
29 *652:33 *783:15 0.00211989
30 *652:33 *817:9 0.0021766
31 *652:33 *851:13 0.00226481
32 *897:adc_data[11] *897:adc_data[4] 0.00484128
33 *67:261 *897:adc_data[4] 0.00463639
34 *104:22 *897:adc_data[4] 0.00923736
35 *104:26 *652:31 8.67442e-05
36 *107:21 *897:adc_data[4] 0.00162064
37 *118:55 *897:adc_data[4] 0.000142513
38 *118:75 *652:31 1.87994e-05
39 *540:50 *897:adc_data[4] 0.0103045
40 *541:27 *897:adc_data[4] 0.00763083
41 *604:15 *897:adc_data[4] 5.63741e-05
42 *646:30 *897:adc_data[4] 0.00414501
43 *647:31 *897:adc_data[4] 0.000769724
44 *647:33 *897:adc_data[4] 0.00598554
45 *649:13 *652:33 0.0175505
46 *649:25 *897:adc_data[4] 0.00698644
47 *650:11 *652:11 1.81185e-05
48 *650:35 *652:33 0.00605271
49 *650:45 *897:adc_data[4] 0.00793885
50 *651:7 *652:11 0.000292981
*RES
1 *892:data_out[4] *652:11 7.1525 
2 *652:11 *652:13 61.86 
3 *652:13 *652:31 10.4009 
4 *652:31 *652:33 135.956 
5 *652:33 *897:adc_data[4] 13.8217 
*END

*D_NET *653 0.191422
*CONN
*I *897:adc_data[5] I *D soc_sys
*I *892:data_out[5] O *D CF_ADC_SAR12
*CAP
1 *897:adc_data[5] 6.35402e-05
2 *892:data_out[5] 6.31724e-05
3 *653:18 0.0250405
4 *653:16 0.0249769
5 *653:14 0.0217785
6 *653:12 0.0217785
7 *653:10 0.0225217
8 *653:8 0.0225849
9 *653:8 *892:sel_csel_dft[0] 0
10 *653:10 *654:21 0.00243704
11 *653:10 *655:27 0.00134341
12 *653:10 *676:25 0.00409625
13 *653:14 *700:15 0.0320973
14 *653:14 *748:13 0.0120133
15 *653:14 *761:21 0
16 *111:27 *653:14 0
17 *574:19 *653:18 0
18 *649:25 *897:adc_data[5] 0.000311539
19 *650:45 *897:adc_data[5] 0.000316036
*RES
1 *892:data_out[5] *653:8 1.13807 
2 *653:8 *653:10 67.7388 
3 *653:10 *653:12 0.5 
4 *653:12 *653:14 88.9529 
5 *653:14 *653:16 0.5 
6 *653:16 *653:18 66.2745 
7 *653:18 *897:adc_data[5] 1.475 
*END

*D_NET *654 0.189391
*CONN
*I *897:adc_data[6] I *D soc_sys
*I *892:data_out[6] O *D CF_ADC_SAR12
*CAP
1 *897:adc_data[6] 0.00340568
2 *892:data_out[6] 0.0257818
3 *654:23 0.0513136
4 *654:21 0.0736897
5 *654:21 *892:reset_n 0
6 *654:21 *655:27 0.00012429
7 *654:23 *892:refby2 8.46028e-06
8 *541:27 *897:adc_data[6] 0.0163141
9 *615:10 *654:23 0
10 *651:41 *897:adc_data[6] 0.0163167
11 *653:10 *654:21 0.00243704
*RES
1 *892:data_out[6] *654:21 16.3787 
2 *654:21 *654:23 128.635 
3 *654:23 *897:adc_data[6] 28.6078 
*END

*D_NET *655 0.232548
*CONN
*I *897:adc_data[7] I *D soc_sys
*I *892:data_out[7] O *D CF_ADC_SAR12
*CAP
1 *897:adc_data[7] 0.000121051
2 *892:data_out[7] 0.00611683
3 *655:33 0.00679183
4 *655:31 0.00667078
5 *655:29 0.0484769
6 *655:27 0.0545937
7 *655:27 *676:25 0.00340181
8 *655:33 *656:29 0.0332924
9 *897:adc_data[4] *655:33 0.00708836
10 *18:29 *655:27 0
11 *118:45 *655:33 0.0186473
12 *541:27 *655:33 0.0396487
13 *595:21 *655:29 0
14 *646:30 *655:33 0.0060583
15 *650:45 *655:33 0.000172723
16 *653:10 *655:27 0.00134341
17 *654:21 *655:27 0.00012429
*RES
1 *892:data_out[7] *655:27 23.2902 
2 *655:27 *655:29 125.965 
3 *655:29 *655:31 0.5 
4 *655:31 *655:33 59.2078 
5 *655:33 *897:adc_data[7] 2.0825 
*END

*D_NET *656 0.330434
*CONN
*I *897:adc_data[8] I *D soc_sys
*I *892:data_out[8] O *D CF_ADC_SAR12
*CAP
1 *897:adc_data[8] 8.31029e-05
2 *892:data_out[8] 7.63008e-05
3 *656:29 0.00921644
4 *656:27 0.00913333
5 *656:25 0.0137685
6 *656:23 0.0145066
7 *656:13 0.00157414
8 *656:11 0.000912362
9 *656:11 *657:7 8.01079e-05
10 *656:13 *697:21 0.00623129
11 *656:13 *720:13 0.00623129
12 *656:13 *726:13 0.00124216
13 *656:23 *892:test_sea 0.00239897
14 *656:23 *892:iso_en 0.00134584
15 *656:23 *892:dft_outc[1] 0.000423527
16 *656:23 *777:9 0
17 *656:25 *673:17 0.0518244
18 *656:25 *711:9 0.00498053
19 *656:25 *736:11 0.000235648
20 *656:25 *762:17 0.00967869
21 *656:25 *788:13 0.00387019
22 *656:25 *792:9 0.0108601
23 *656:29 *808:19 0.000366736
24 *656:29 *819:19 0.00143548
25 *897:adc_data[11] *656:29 0.028074
26 *897:adc_data[4] *656:29 0.00895531
27 *109:21 *656:29 0.00832766
28 *114:29 *656:29 0.0112049
29 *118:45 *656:29 0.00594342
30 *118:55 *656:29 0.000129287
31 *118:75 *656:23 0.000183624
32 *541:27 *656:29 0.00943213
33 *646:28 *897:adc_data[8] 0
34 *647:31 *656:29 0.000408683
35 *647:33 *656:29 3.16829e-05
36 *650:17 *656:25 0.052952
37 *650:35 *656:25 3.83985e-05
38 *650:37 *656:29 0.00154755
39 *650:45 *656:29 0.01932
40 *651:33 *656:29 0.000117568
41 *655:33 *656:29 0.0332924
*RES
1 *892:data_out[8] *656:11 3.51125 
2 *656:11 *656:13 56.685 
3 *656:13 *656:23 8.92303 
4 *656:23 *656:25 800.805 
5 *656:25 *656:27 0.5 
6 *656:27 *656:29 74.7941 
7 *656:29 *897:adc_data[8] 1.5725 
*END

*D_NET *657 0.287035
*CONN
*I *897:adc_data[9] I *D soc_sys
*I *892:data_out[9] O *D CF_ADC_SAR12
*CAP
1 *897:adc_data[9] 0.0002481
2 *892:data_out[9] 0.000322946
3 *657:25 0.0103702
4 *657:23 0.0101221
5 *657:21 0.0150409
6 *657:19 0.0162977
7 *657:9 0.00223248
8 *657:7 0.00129865
9 *657:7 *892:iso_en 0
10 *657:7 *892:cap_trim[2] 8.41703e-06
11 *657:7 *724:39 1.79536e-05
12 *657:9 *694:23 0.00145505
13 *657:9 *723:13 2.10905e-05
14 *657:9 *775:21 0.00359914
15 *657:19 *892:sample_width[0] 0.00409862
16 *657:19 *728:43 0.00274808
17 *657:19 *775:19 0.000148616
18 *657:21 *692:9 0
19 *657:21 *696:9 0.0634115
20 *657:21 *715:9 4.09002e-05
21 *657:21 *753:9 0.00330842
22 *657:21 *757:19 0.00203924
23 *657:21 *758:25 0.0530403
24 *657:21 *772:17 0.00701136
25 *657:21 *850:13 0
26 *657:21 *858:9 0.0053751
27 *657:21 *866:9 0
28 *657:21 *888:21 0.000265994
29 *657:25 *897:adc_eof 0.0130472
30 *657:25 *898:wbs_adr_i[6] 0.00126247
31 *65:21 *657:25 0.0442763
32 *118:75 *657:19 3.86814e-05
33 *647:23 *657:7 0.000114424
34 *650:13 *657:19 0.000101392
35 *651:41 *657:25 0.0190903
36 *652:13 *657:9 0.00608354
37 *652:31 *657:19 0.000418195
38 *656:11 *657:7 8.01079e-05
*RES
1 *892:data_out[9] *657:7 7.025 
2 *657:7 *657:9 56.34 
3 *657:9 *657:19 9.8183 
4 *657:19 *657:21 808.965 
5 *657:21 *657:23 0.5 
6 *657:23 *657:25 67.9769 
7 *657:25 *897:adc_data[9] 4.1225 
*END

*D_NET *658 0.24076
*CONN
*I *897:adc_eof I *D soc_sys
*I *892:eof O *D CF_ADC_SAR12
*CAP
1 *897:adc_eof 0.00643988
2 *892:eof 0.00317521
3 *658:21 0.0430533
4 *658:19 0.0397886
5 *897:adc_eof *898:wbs_adr_i[6] 0.000640897
6 *658:19 *892:hiz 0
7 *658:19 *892:sample_width[0] 0.00819226
8 *658:19 *672:19 7.65551e-05
9 *658:19 *672:21 0.00179458
10 *658:19 *725:13 0.00814596
11 *658:21 *897:sram_dat_i[11] 0
12 *658:21 *697:9 0.0646807
13 *658:21 *709:9 0.00231569
14 *658:21 *719:9 0
15 *658:21 *740:11 0.00237887
16 *658:21 *781:17 0.000148422
17 *658:21 *888:21 0
18 *541:27 *897:adc_eof 0.0250825
19 *649:7 *658:19 0.000109468
20 *651:13 *658:21 0.0178294
21 *651:31 *658:21 0.0033375
22 *651:41 *897:adc_eof 0.000523504
23 *652:33 *658:21 0
24 *657:25 *897:adc_eof 0.0130472
*RES
1 *892:eof *658:19 23.4049 
2 *658:19 *658:21 136.732 
3 *658:21 *897:adc_eof 42.1256 
*END

*D_NET *659 0.259933
*CONN
*I *893:IREF_VCMBUF I *D CF_ADC_SAR12_sar_refs
*I *893:IREF_VREFBUF I *D CF_ADC_SAR12_sar_refs
*I *892:ibias2p5u_1 I *D CF_ADC_SAR12
*I *892:ibias2p5u I *D CF_ADC_SAR12
*I *895:ibias I *D CF_BUF_HIZ
*I *894:ibg_2p375uA O *D CF_BGR
*CAP
1 *893:IREF_VCMBUF 0.000241187
2 *893:IREF_VREFBUF 0.00708355
3 *892:ibias2p5u_1 0.000119885
4 *892:ibias2p5u 0.000765765
5 *895:ibias 0.0548414
6 *894:ibg_2p375uA 0.00300803
7 *659:69 0.0430316
8 *659:39 0.087159
9 *659:15 0.0315451
10 *659:13 0.0300357
11 *893:IREF_VREFBUF *661:19 1.17599e-05
12 *659:13 *660:12 0
13 *659:13 *664:15 2.24676e-05
14 *659:39 *892:vinp 0.000158324
15 *892:vreflo *659:39 0.000852712
16 *892:vinm *659:39 0.000961413
17 *14:13 *893:IREF_VREFBUF 9.56939e-05
*RES
1 *894:ibg_2p375uA *659:13 13.9962 
2 *659:13 *659:15 73.3375 
3 *659:15 *895:ibias 13.8319 
4 *895:ibias *659:39 14.7863 
5 *659:39 *892:ibias2p5u 2.01807 
6 *892:ibias2p5u *892:ibias2p5u_1 0.344533 
7 *659:39 *659:69 44.5173 
8 *659:69 *893:IREF_VREFBUF 24.3071 
9 *893:IREF_VREFBUF *893:IREF_VCMBUF 0.684633 
*END

*D_NET *660 0.0764432
*CONN
*I *896:nbias I *D CF_REFBUF
*I *894:ibg_3uA O *D CF_BGR
*CAP
1 *896:nbias 8.46368e-05
2 *894:ibg_3uA 0.0111074
3 *660:18 0.0252911
4 *660:16 0.0267581
5 *660:12 0.0126591
6 *660:12 *664:15 0.000542966
7 *659:13 *660:12 0
*RES
1 *894:ibg_3uA *660:12 29.6951 
2 *660:12 *660:16 28.655 
3 *660:16 *660:18 62.8495 
4 *660:18 *896:nbias 3.82 
*END

*D_NET *661 0.166632
*CONN
*I *892:refby2 I *D CF_ADC_SAR12
*I *893:REFBY2 O *D CF_ADC_SAR12_sar_refs
*CAP
1 *892:refby2 0.00795225
2 *893:REFBY2 0.0723503
3 *661:19 0.0803025
4 *892:refby2 *722:17 0
5 *661:19 *662:19 0.00600657
6 *893:IREF_VREFBUF *661:19 1.17599e-05
7 *654:23 *892:refby2 8.46028e-06
*RES
1 *893:REFBY2 *661:19 49.7126 
2 *661:19 *892:refby2 22.0254 
*END

*D_NET *662 0.0902725
*CONN
*I *892:vrefhi I *D CF_ADC_SAR12
*I *893:REFHI O *D CF_ADC_SAR12_sar_refs
*CAP
1 *892:vrefhi 0.000190415
2 *893:REFHI 0.0165493
3 *662:19 0.0255837
4 *662:17 0.0419426
5 *14:13 *662:17 0
6 *661:19 *662:19 0.00600657
*RES
1 *893:REFHI *662:17 42.0302 
2 *662:17 *662:19 64.4809 
3 *662:19 *892:vrefhi 0.5358 
*END

*D_NET *663 0.124819
*CONN
*I *892:vinp I *D CF_ADC_SAR12
*I *895:vout O *D CF_BUF_HIZ
*CAP
1 *892:vinp 0.000992234
2 *895:vout 0.0524404
3 *663:23 0.0534326
4 *663:23 *706:17 0.00643884
5 *663:23 *714:29 0.00935346
6 *892:vreflo *892:vinp 0.00100182
7 *892:vinm *892:vinp 0.00100182
8 *659:39 *892:vinp 0.000158324
*RES
1 *895:vout *663:23 46.4209 
2 *663:23 *892:vinp 4.79687 
*END

*D_NET *664 0.0779332
*CONN
*I *896:ref_1v2 I *D CF_REFBUF
*I *894:Vout O *D CF_BGR
*CAP
1 *896:ref_1v2 7.79262e-05
2 *894:Vout 0.00265655
3 *664:17 0.0360273
4 *664:15 0.038606
5 *659:13 *664:15 2.24676e-05
6 *660:12 *664:15 0.000542966
*RES
1 *894:Vout *664:15 43.9072 
2 *664:15 *664:17 89.9435 
3 *664:17 *896:ref_1v2 1.8575 
*END

*D_NET *665 0.250707
*CONN
*I *895:e_pd I *D CF_BUF_HIZ
*I *897:analog_ctrl[0] O *D soc_sys
*CAP
1 *895:e_pd 0.000122416
2 *897:analog_ctrl[0] 0.000753146
3 *665:17 0.0129199
4 *665:15 0.0127975
5 *665:13 0.0242489
6 *665:11 0.0242489
7 *665:9 0.017671
8 *665:7 0.0184242
9 *895:e_pd *895:en_pd 0
10 *665:7 *699:19 4.29253e-05
11 *665:7 *710:7 0.000486584
12 *665:9 *670:9 0.00132079
13 *665:9 *687:9 0.000120926
14 *665:9 *708:9 0.000112534
15 *665:9 *739:11 0.000581894
16 *665:9 *759:19 0.0204537
17 *665:9 *761:15 0.000363363
18 *665:9 *762:15 0.00200163
19 *665:9 *770:9 0.000252846
20 *665:9 *771:11 0
21 *665:9 *790:17 0.0006038
22 *665:13 *671:23 0.0283663
23 *665:13 *711:19 0.0135285
24 *665:13 *714:27 0.000379259
25 *665:13 *757:21 0.00201901
26 *665:13 *757:29 0.00984847
27 *665:13 *759:19 4.12303e-05
28 *665:13 *759:31 0.000888742
29 *665:13 *760:21 0.00370121
30 *665:13 *760:31 0.00104693
31 *665:13 *771:15 0.00573062
32 *40:21 *665:9 0.00024553
33 *67:255 *665:7 0.000200402
34 *78:21 *665:13 0.0166478
35 *116:23 *665:17 0.028319
36 *119:18 *895:e_pd 7.94016e-06
37 *647:25 *665:9 0.00220937
*RES
1 *897:analog_ctrl[0] *665:7 3.08273 
2 *665:7 *665:9 51.5457 
3 *665:9 *665:11 0.5 
4 *665:11 *665:13 115.173 
5 *665:13 *665:15 0.5 
6 *665:15 *665:17 52.1487 
7 *665:17 *895:e_pd 4.26713 
*END

*D_NET *670 0.169446
*CONN
*I *896:pd I *D CF_REFBUF
*I *897:analog_ctrl[104] O *D soc_sys
*CAP
1 *896:pd 4.75888e-05
2 *897:analog_ctrl[104] 0.00113457
3 *670:17 0.0182287
4 *670:9 0.0538053
5 *670:7 0.0367588
6 *670:7 *671:7 0.000833728
7 *670:9 *676:17 0
8 *670:9 *687:9 0.000136517
9 *670:9 *708:9 1.40716e-05
10 *670:9 *723:9 0
11 *670:9 *745:9 0
12 *670:9 *759:19 1.7635e-05
13 *670:9 *770:9 0.00224916
14 *670:9 *779:9 0
15 *670:9 *782:13 0
16 *647:25 *670:9 0.0548992
17 *665:9 *670:9 0.00132079
*RES
1 *897:analog_ctrl[104] *670:7 3.11187 
2 *670:7 *670:9 876.795 
3 *670:9 *670:17 49.5153 
4 *670:17 *896:pd 2.7425 
*END

*D_NET *671 0.21361
*CONN
*I *896:switchon I *D CF_REFBUF
*I *897:analog_ctrl[105] O *D soc_sys
*CAP
1 *896:switchon 9.74471e-05
2 *897:analog_ctrl[105] 0.000997924
3 *671:25 0.0492979
4 *671:23 0.0549848
5 *671:9 0.00930876
6 *671:7 0.00452234
7 *671:7 *672:7 0.000917305
8 *671:9 *723:9 0.0172096
9 *671:9 *739:11 0.000676239
10 *671:9 *770:17 0.0115314
11 *671:9 *791:9 0.00520389
12 *671:9 *808:9 0.00025688
13 *671:23 *702:23 0.00027891
14 *671:23 *711:19 0.000951117
15 *671:23 *714:27 0.0096026
16 *671:23 *718:15 0.00031376
17 *671:23 *748:9 0.000132825
18 *671:23 *759:21 0.00185061
19 *671:23 *760:31 0.0106416
20 *671:23 *771:15 0.00563433
21 *671:25 *672:41 0
22 *896:ch2 *896:switchon 0
23 *665:13 *671:23 0.0283663
24 *670:7 *671:7 0.000833728
*RES
1 *897:analog_ctrl[105] *671:7 3.4032 
2 *671:7 *671:9 196.965 
3 *671:9 *671:23 47.3819 
4 *671:23 *671:25 130.185 
5 *671:25 *896:switchon 1.24193 
*END

*D_NET *672 0.227433
*CONN
*I *896:boost I *D CF_REFBUF
*I *897:analog_ctrl[106] O *D soc_sys
*CAP
1 *896:boost 3.48835e-05
2 *897:analog_ctrl[106] 0.00133803
3 *672:41 0.0215791
4 *672:39 0.0242353
5 *672:21 0.00749897
6 *672:19 0.00485004
7 *672:9 0.025131
8 *672:7 0.0264269
9 *672:7 *673:11 0.000472967
10 *672:7 *674:7 0.000330405
11 *672:9 *681:9 0.000534697
12 *672:9 *711:9 0.00129965
13 *672:9 *736:11 0.0116874
14 *672:9 *747:9 0.000861656
15 *672:9 *762:17 0.0544028
16 *672:9 *790:17 0
17 *672:19 *892:sample_width[0] 7.86633e-05
18 *672:19 *673:17 1.87784e-05
19 *672:21 *892:sample_width[0] 0.000156018
20 *672:21 *892:trimunit 0.000826645
21 *672:21 *723:13 6.23629e-05
22 *672:21 *775:21 0.0128868
23 *672:39 *892:trimunit 0.00256288
24 *672:39 *892:icont_lv[1] 0.0120314
25 *672:39 *892:dft_outc[0] 7.96997e-05
26 *672:39 *694:23 0.00256548
27 *672:39 *719:21 0.0120314
28 *672:39 *728:43 7.09845e-05
29 *672:39 *775:21 0.000590016
30 *650:13 *672:21 0
31 *652:33 *672:9 0
32 *658:19 *672:19 7.65551e-05
33 *658:19 *672:21 0.00179458
34 *671:7 *672:7 0.000917305
35 *671:25 *672:41 0
*RES
1 *897:analog_ctrl[106] *672:7 4.13153 
2 *672:7 *672:9 105.896 
3 *672:9 *672:19 3.3579 
4 *672:19 *672:21 128.1 
5 *672:21 *672:39 30.0957 
6 *672:39 *672:41 57.7473 
7 *672:41 *896:boost 1.06713 
*END

*D_NET *673 0.204251
*CONN
*I *896:ch_cont I *D CF_REFBUF
*I *897:analog_ctrl[107] O *D soc_sys
*CAP
1 *896:ch_cont 1.57589e-05
2 *897:analog_ctrl[107] 0.0019366
3 *673:21 0.0185106
4 *673:17 0.0566023
5 *673:15 0.0389728
6 *673:11 0.00280192
7 *673:11 *674:7 0.000472967
8 *673:11 *763:9 0
9 *673:11 *819:9 0.00303415
10 *673:17 *761:17 0
11 *673:17 *762:17 0.0268848
12 *673:17 *792:9 0.00227057
13 *673:17 *794:9 0.000215108
14 *673:17 *795:9 0
15 *650:17 *673:17 0.000216897
16 *656:25 *673:17 0.0518244
17 *672:7 *673:11 0.000472967
18 *672:19 *673:17 1.87784e-05
*RES
1 *897:analog_ctrl[107] *673:11 39.1723 
2 *673:11 *673:15 13.835 
3 *673:15 *673:17 909.052 
4 *673:17 *673:21 49.7151 
5 *673:21 *896:ch_cont 2.7325 
*END

*D_NET *674 0.0751724
*CONN
*I *893:sw_start I *D CF_ADC_SAR12_sar_refs
*I *897:analog_ctrl[108] O *D soc_sys
*CAP
1 *893:sw_start 0.00768299
2 *897:analog_ctrl[108] 0.00308561
3 *674:9 0.0164633
4 *674:7 0.0118659
5 *893:sw_start *893:pd 0.0034752
6 *893:sw_start *893:pd_ana 0
7 *674:7 *675:7 0.00180349
8 *674:7 *677:7 0.000262814
9 *674:9 *678:9 0.00127401
10 *674:9 *729:9 0.0024724
11 *674:9 *746:9 0.02132
12 *674:9 *783:17 0
13 *674:9 *890:9 0.00466338
14 *672:7 *674:7 0.000330405
15 *673:11 *674:7 0.000472967
*RES
1 *897:analog_ctrl[108] *674:7 8.00627 
2 *674:7 *674:9 266.835 
3 *674:9 *893:sw_start 25.7022 
*END

*D_NET *675 0.0979802
*CONN
*I *893:pd_vcmbuf I *D CF_ADC_SAR12_sar_refs
*I *897:analog_ctrl[109] O *D soc_sys
*CAP
1 *893:pd_vcmbuf 0.00698214
2 *897:analog_ctrl[109] 0.00191387
3 *675:9 0.0173121
4 *675:7 0.0122438
5 *893:pd_vcmbuf *893:PWR_CTRL_VREF[1] 2.67844e-05
6 *893:pd_vcmbuf *893:EN_RESVDA 3.58969e-05
7 *893:pd_vcmbuf *893:PWR_CTRL_VREF[0] 0.00116051
8 *893:pd_vcmbuf *893:enable_hv 0.000257949
9 *893:pd_vcmbuf *893:PD_BUF_VREF 0.0140549
10 *893:pd_vcmbuf *694:15 0.000356981
11 *675:7 *677:7 0.00180026
12 *675:9 *686:9 0
13 *675:9 *741:25 0.0287228
14 *675:9 *753:9 0
15 *675:9 *781:17 0.00437616
16 *675:9 *868:9 0.00693258
17 *674:7 *675:7 0.00180349
*RES
1 *897:analog_ctrl[109] *675:7 6.2 
2 *675:7 *675:9 326.505 
3 *675:9 *893:pd_vcmbuf 26.6795 
*END

*D_NET *676 0.129511
*CONN
*I *892:reset_n I *D CF_ADC_SAR12
*I *897:analog_ctrl[10] O *D soc_sys
*CAP
1 *892:reset_n 0.00106362
2 *897:analog_ctrl[10] 0.000174605
3 *676:25 0.0247057
4 *676:23 0.0258651
5 *676:17 0.00782883
6 *676:15 0.00606235
7 *676:9 0.00394298
8 *676:7 0.00366104
9 *892:reset_n *892:sel_csel_dft[3] 0
10 *676:7 *687:7 0.000212837
11 *676:7 *754:7 0
12 *676:7 *776:11 1.32141e-05
13 *676:7 *787:9 4.29253e-05
14 *676:9 *699:47 1.79536e-05
15 *676:9 *712:9 0.00499207
16 *676:9 *741:19 1.83975e-05
17 *676:9 *754:9 0
18 *676:9 *789:9 0.0103506
19 *676:15 *897:sram_dat_i[2] 0.00108798
20 *676:15 *881:7 0.00108584
21 *676:17 *770:9 0.00160914
22 *676:17 *771:11 0.000920573
23 *676:17 *779:9 0.0142189
24 *676:23 *718:15 0.0026906
25 *676:23 *735:15 0.007871
26 *897:wbs_adr_i[30] *676:23 8.02886e-05
27 *897:wbs_adr_i[31] *676:23 4.21127e-05
28 *897:wbs_dat_i[30] *676:23 0.000796366
29 *897:wbs_dat_i[31] *676:23 0.000569542
30 *67:239 *676:9 0.000654352
31 *104:26 *676:9 9.82982e-05
32 *566:15 *676:25 5.20787e-06
33 *631:8 *676:23 0.000580979
34 *632:16 *676:23 0.00073112
35 *648:35 *676:9 1.87328e-05
36 *653:10 *676:25 0.00409625
37 *654:21 *892:reset_n 0
38 *655:27 *676:25 0.00340181
39 *670:9 *676:17 0
*RES
1 *897:analog_ctrl[10] *676:7 1.07253 
2 *676:7 *676:9 129.135 
3 *676:9 *676:15 2.786 
4 *676:15 *676:17 162.285 
5 *676:17 *676:23 13.2449 
6 *676:23 *676:25 69.0308 
7 *676:25 *892:reset_n 11.0605 
*END

*D_NET *677 0.0987582
*CONN
*I *893:S_LV[0] I *D CF_ADC_SAR12_sar_refs
*I *897:analog_ctrl[110] O *D soc_sys
*CAP
1 *893:S_LV[0] 0.00542155
2 *897:analog_ctrl[110] 0.0034605
3 *677:9 0.0110729
4 *677:7 0.00911184
5 *893:S_LV[0] *893:S_LV[1] 0.0146054
6 *677:7 *678:7 0.00233504
7 *677:7 *679:7 0.000117015
8 *677:7 *680:7 0
9 *677:7 *682:7 0
10 *677:9 *682:9 0.00162327
11 *677:9 *689:9 0.0257372
12 *677:9 *713:9 0
13 *677:9 *744:9 0.0209455
14 *677:9 *818:9 0.000575945
15 *893:vssa *893:S_LV[0] 0.00168886
16 *674:7 *677:7 0.000262814
17 *675:7 *677:7 0.00180026
*RES
1 *897:analog_ctrl[110] *677:7 9.696 
2 *677:7 *677:9 302.025 
3 *677:9 *893:S_LV[0] 23.1107 
*END

*D_NET *678 0.0970545
*CONN
*I *893:S_LV[1] I *D CF_ADC_SAR12_sar_refs
*I *897:analog_ctrl[111] O *D soc_sys
*CAP
1 *893:S_LV[1] 0.00293473
2 *897:analog_ctrl[111] 0.00247249
3 *678:9 0.0146888
4 *678:7 0.0142266
5 *893:S_LV[1] *893:S_LV[4] 0.000215513
6 *893:S_LV[1] *893:S_LV[2] 0.0152238
7 *678:7 *679:7 0.00233504
8 *678:9 *729:9 0.0037807
9 *678:9 *746:9 0.021053
10 *678:9 *781:13 0.000737279
11 *678:9 *783:17 0
12 *678:9 *784:9 0
13 *893:vssa *893:S_LV[1] 0.00117202
14 *893:S_LV[0] *893:S_LV[1] 0.0146054
15 *674:9 *678:9 0.00127401
16 *677:7 *678:7 0.00233504
*RES
1 *897:analog_ctrl[111] *678:7 7.88973 
2 *678:7 *678:9 300.495 
3 *678:9 *893:S_LV[1] 24.917 
*END

*D_NET *679 0.0924124
*CONN
*I *893:S_LV[2] I *D CF_ADC_SAR12_sar_refs
*I *897:analog_ctrl[112] O *D soc_sys
*CAP
1 *893:S_LV[2] 0.00248796
2 *897:analog_ctrl[112] 0.00284373
3 *679:9 0.0109444
4 *679:7 0.0113002
5 *893:S_LV[2] *893:S_LV[4] 4.31143e-05
6 *893:S_LV[2] *893:S_LV[3] 0.0151439
7 *679:7 *680:7 0.00259278
8 *679:9 *680:9 0.0125112
9 *679:9 *694:9 0
10 *679:9 *702:9 0.00411047
11 *679:9 *702:13 0.00394715
12 *679:9 *710:9 0.00109728
13 *679:9 *738:9 0.00196119
14 *679:9 *860:9 0.00458114
15 *893:vssa *893:S_LV[2] 0.00117202
16 *893:S_LV[1] *893:S_LV[2] 0.0152238
17 *677:7 *679:7 0.000117015
18 *678:7 *679:7 0.00233504
*RES
1 *897:analog_ctrl[112] *679:7 8.76373 
2 *679:7 *679:9 298.965 
3 *679:9 *893:S_LV[2] 24.043 
*END

*D_NET *680 0.0921591
*CONN
*I *893:S_LV[3] I *D CF_ADC_SAR12_sar_refs
*I *897:analog_ctrl[113] O *D soc_sys
*CAP
1 *893:S_LV[3] 0.00247238
2 *897:analog_ctrl[113] 0.00304243
3 *680:9 0.0128282
4 *680:7 0.0133983
5 *893:S_LV[3] *893:S_LV[4] 0.0151439
6 *680:7 *681:7 0.00125699
7 *680:7 *682:7 0.000629725
8 *680:9 *710:9 0.00109728
9 *680:9 *714:9 0
10 *680:9 *738:9 0.00143236
11 *680:9 *825:21 0.00494504
12 *680:9 *860:9 0.00449264
13 *893:vssa *893:S_LV[3] 0.00117202
14 *893:S_LV[2] *893:S_LV[3] 0.0151439
15 *677:7 *680:7 0
16 *679:7 *680:7 0.00259278
17 *679:9 *680:9 0.0125112
*RES
1 *897:analog_ctrl[113] *680:7 8.88027 
2 *680:7 *680:9 297.435 
3 *680:9 *893:S_LV[3] 23.9264 
*END

*D_NET *681 0.104659
*CONN
*I *893:S_LV[4] I *D CF_ADC_SAR12_sar_refs
*I *897:analog_ctrl[114] O *D soc_sys
*CAP
1 *893:S_LV[4] 0.0037831
2 *897:analog_ctrl[114] 0.00129985
3 *681:9 0.00924367
4 *681:7 0.00676042
5 *893:S_LV[4] *893:S_LV[7] 0.0179318
6 *681:7 *682:7 0.00125699
7 *681:9 *684:9 0.0110916
8 *681:9 *736:11 0.00215029
9 *681:9 *747:9 0.0260616
10 *681:9 *869:9 0.00671369
11 *893:vssa *893:S_LV[4] 0.00117202
12 *893:S_LV[3] *893:S_LV[4] 0.0151439
13 *893:S_LV[2] *893:S_LV[4] 4.31143e-05
14 *893:S_LV[1] *893:S_LV[4] 0.000215513
15 *649:13 *681:9 0
16 *672:9 *681:9 0.000534697
17 *680:7 *681:7 0.00125699
*RES
1 *897:analog_ctrl[114] *681:7 4.452 
2 *681:7 *681:9 295.905 
3 *681:9 *893:S_LV[4] 28.3547 
*END

*D_NET *682 0.0724712
*CONN
*I *893:S_LV[5] I *D CF_ADC_SAR12_sar_refs
*I *897:analog_ctrl[115] O *D soc_sys
*CAP
1 *893:S_LV[5] 0.00879341
2 *897:analog_ctrl[115] 0.00347004
3 *682:9 0.0192525
4 *682:7 0.0139291
5 *893:S_LV[5] *893:S_LV[6] 3.21044e-05
6 *893:S_LV[5] *893:dft_comp_en 2.15338e-05
7 *682:7 *683:7 0.00294276
8 *682:9 *713:9 0
9 *682:9 *744:9 0.00768776
10 *682:9 *830:13 0.0059815
11 *682:9 *871:9 0.00685049
12 *677:7 *682:7 0
13 *677:9 *682:9 0.00162327
14 *680:7 *682:7 0.000629725
15 *681:7 *682:7 0.00125699
*RES
1 *897:analog_ctrl[115] *682:7 9.8708 
2 *682:7 *682:9 286.215 
3 *682:9 *893:S_LV[5] 30.3364 
*END

*D_NET *683 0.0674322
*CONN
*I *893:S_LV[6] I *D CF_ADC_SAR12_sar_refs
*I *897:analog_ctrl[116] O *D soc_sys
*CAP
1 *893:S_LV[6] 0.00566476
2 *897:analog_ctrl[116] 0.00484484
3 *683:9 0.0217023
4 *683:7 0.0208824
5 *893:S_LV[6] *893:dft_comp_en 0.00686935
6 *683:7 *684:7 0.00128844
7 *683:7 *685:7 0.000378969
8 *683:7 *689:7 0
9 *683:9 *796:9 0
10 *683:9 *820:9 0
11 *683:9 *849:13 0.00282619
12 *683:9 *864:9 0
13 *683:9 *875:11 0
14 *893:S_LV[5] *893:S_LV[6] 3.21044e-05
15 *682:7 *683:7 0.00294276
*RES
1 *897:analog_ctrl[116] *683:7 12.2597 
2 *683:7 *683:9 291.825 
3 *683:9 *893:S_LV[6] 20.547 
*END

*D_NET *684 0.092257
*CONN
*I *893:S_LV[7] I *D CF_ADC_SAR12_sar_refs
*I *897:analog_ctrl[117] O *D soc_sys
*CAP
1 *893:S_LV[7] 0.00409965
2 *897:analog_ctrl[117] 0.0013535
3 *684:9 0.0113564
4 *684:7 0.00861021
5 *893:S_LV[7] *893:dft_comp_en 0.0140151
6 *684:7 *685:7 0.00128844
7 *684:9 *688:9 0.00665607
8 *684:9 *736:11 0.00177001
9 *684:9 *829:21 0.00556691
10 *684:9 *869:9 0.0064482
11 *893:S_LV[4] *893:S_LV[7] 0.0179318
12 *649:13 *684:9 0
13 *652:33 *684:9 0.000780634
14 *681:9 *684:9 0.0110916
15 *683:7 *684:7 0.00128844
*RES
1 *897:analog_ctrl[117] *684:7 4.56853 
2 *684:7 *684:9 292.335 
3 *684:9 *893:S_LV[7] 28.2382 
*END

*D_NET *685 0.0613677
*CONN
*I *893:refout_en I *D CF_ADC_SAR12_sar_refs
*I *897:analog_ctrl[118] O *D soc_sys
*CAP
1 *893:refout_en 0.00972024
2 *897:analog_ctrl[118] 0.00244844
3 *685:9 0.0192995
4 *685:7 0.0120277
5 *893:refout_en *893:hiz 0
6 *893:refout_en *893:sw_holdb 0
7 *685:7 *686:7 0.0018753
8 *685:7 *689:7 0
9 *685:9 *692:9 0.00685219
10 *685:9 *827:21 0.00499516
11 *685:9 *857:9 0.00213351
12 *685:9 *866:9 0.000348298
13 *42:13 *685:9 0
14 *683:7 *685:7 0.000378969
15 *684:7 *685:7 0.00128844
*RES
1 *897:analog_ctrl[118] *685:7 7.19053 
2 *685:7 *685:9 248.985 
3 *685:9 *893:refout_en 26.5179 
*END

*D_NET *686 0.0655134
*CONN
*I *893:sw_holdb I *D CF_ADC_SAR12_sar_refs
*I *897:analog_ctrl[119] O *D soc_sys
*CAP
1 *893:sw_holdb 0.00743724
2 *897:analog_ctrl[119] 0.00206146
3 *686:9 0.0162599
4 *686:7 0.0108841
5 *893:sw_holdb *893:enpdb_hv 0.00792749
6 *686:7 *688:7 0.00134319
7 *686:7 *689:7 0.000243763
8 *686:9 *753:9 0.00779791
9 *686:9 *757:19 2.11552e-05
10 *686:9 *772:17 0.00263197
11 *686:9 *823:17 0.000554907
12 *686:9 *850:13 0.00274548
13 *686:9 *868:9 0.000895604
14 *686:9 *887:9 0.00283397
15 *893:refout_en *893:sw_holdb 0
16 *675:9 *686:9 0
17 *685:7 *686:7 0.0018753
*RES
1 *897:analog_ctrl[119] *686:7 6.43307 
2 *686:7 *686:9 243.885 
3 *686:9 *893:sw_holdb 27.6925 
*END

*D_NET *687 0.176884
*CONN
*I *892:sof I *D CF_ADC_SAR12
*I *897:analog_ctrl[11] O *D soc_sys
*CAP
1 *892:sof 0.00179668
2 *897:analog_ctrl[11] 0.000787875
3 *687:9 0.0133935
4 *687:7 0.0123847
5 *892:sof *892:sample_width[1] 0.00556766
6 *892:sof *892:test_sea 0.00652792
7 *892:sof *892:iso_en 4.88425e-05
8 *892:sof *892:next 0.0023307
9 *892:sof *892:pd 0.00403763
10 *892:sof *892:dft_outc[1] 0.0015763
11 *892:sof *726:13 1.78103e-05
12 *687:7 *691:7 0.00100267
13 *687:7 *754:7 0
14 *687:9 *708:9 0.061963
15 *687:9 *759:19 0.00176454
16 *687:9 *791:9 0
17 *647:25 *687:9 0.0632138
18 *665:9 *687:9 0.000120926
19 *670:9 *687:9 0.000136517
20 *676:7 *687:7 0.000212837
*RES
1 *897:analog_ctrl[11] *687:7 3.2284 
2 *687:7 *687:9 718.185 
3 *687:9 *892:sof 17.489 
*END

*D_NET *688 0.068009
*CONN
*I *893:enpdb_hv I *D CF_ADC_SAR12_sar_refs
*I *897:analog_ctrl[120] O *D soc_sys
*CAP
1 *893:enpdb_hv 0.00821053
2 *897:analog_ctrl[120] 0.00140869
3 *688:9 0.0138819
4 *688:7 0.0070801
5 *688:7 *689:7 0.00134706
6 *688:9 *817:9 0.00255886
7 *688:9 *829:21 0.00133795
8 *688:9 *851:13 0.00291101
9 *893:sw_holdb *893:enpdb_hv 0.00792749
10 *649:13 *688:9 0.0106641
11 *652:33 *688:9 0.00268195
12 *684:9 *688:9 0.00665607
13 *686:7 *688:7 0.00134319
*RES
1 *897:analog_ctrl[120] *688:7 4.74333 
2 *688:7 *688:9 241.845 
3 *688:9 *893:enpdb_hv 29.3822 
*END

*D_NET *689 0.0964148
*CONN
*I *893:PD_BUF_VREF I *D CF_ADC_SAR12_sar_refs
*I *897:analog_ctrl[121] O *D soc_sys
*CAP
1 *893:PD_BUF_VREF 0.0028341
2 *897:analog_ctrl[121] 0.00360423
3 *689:9 0.0139772
4 *689:7 0.0147474
5 *893:PD_BUF_VREF *893:PWR_CTRL_VREF[1] 9.45083e-05
6 *893:PD_BUF_VREF *893:EN_RESVDA 0.000184977
7 *893:PD_BUF_VREF *893:PWR_CTRL_VREF[0] 0.0140527
8 *689:7 *690:7 0.00273927
9 *689:9 *713:9 0
10 *689:9 *714:9 0
11 *689:9 *818:9 0.00279746
12 *893:pd_vcmbuf *893:PD_BUF_VREF 0.0140549
13 *677:9 *689:9 0.0257372
14 *683:7 *689:7 0
15 *685:7 *689:7 0
16 *686:7 *689:7 0.000243763
17 *688:7 *689:7 0.00134706
*RES
1 *897:analog_ctrl[121] *689:7 9.63773 
2 *689:7 *689:9 313.755 
3 *689:9 *893:PD_BUF_VREF 24.5109 
*END

*D_NET *690 0.0849747
*CONN
*I *893:dft_comp_en I *D CF_ADC_SAR12_sar_refs
*I *897:analog_ctrl[122] O *D soc_sys
*CAP
1 *893:dft_comp_en 0.00319302
2 *897:analog_ctrl[122] 0.00416932
3 *690:9 0.0151567
4 *690:7 0.016133
5 *690:7 *897:sram_ack_i 0.00112896
6 *690:7 *821:7 0.000648096
7 *690:9 *713:9 0
8 *690:9 *725:9 0.00467855
9 *690:9 *802:9 0.000493218
10 *690:9 *807:9 0.00038312
11 *690:9 *837:13 0.00712165
12 *690:9 *867:9 0.00561862
13 *893:S_LV[7] *893:dft_comp_en 0.0140151
14 *893:S_LV[6] *893:dft_comp_en 0.00686935
15 *893:S_LV[5] *893:dft_comp_en 2.15338e-05
16 *67:217 *690:9 0.00260516
17 *689:7 *690:7 0.00273927
*RES
1 *897:analog_ctrl[122] *690:7 10.6283 
2 *690:7 *690:9 286.725 
3 *690:9 *893:dft_comp_en 22.1784 
*END

*D_NET *691 0.14097
*CONN
*I *892:next I *D CF_ADC_SAR12
*I *897:analog_ctrl[12] O *D soc_sys
*CAP
1 *892:next 0.00193992
2 *897:analog_ctrl[12] 0.00146933
3 *691:9 0.0230682
4 *691:7 0.0225976
5 *892:next *892:sample_width[5] 0.00750211
6 *892:next *892:test_sea 0.00232792
7 *892:next *892:iso_en 0.000170624
8 *892:next *892:dft_outc[1] 0.000327263
9 *892:next *726:13 0.00749636
10 *691:7 *692:7 0.00198344
11 *691:9 *697:9 0.0119331
12 *691:9 *709:9 0.00116979
13 *691:9 *735:9 0.0218071
14 *691:9 *741:25 0.0107412
15 *691:9 *848:23 0.00672224
16 *691:9 *891:9 0
17 *892:sof *892:next 0.0023307
18 *651:13 *691:9 0.0163803
19 *687:7 *691:7 0.00100267
*RES
1 *897:analog_ctrl[12] *691:7 5.96693 
2 *691:7 *691:9 718.695 
3 *691:9 *892:next 18.9175 
*END

*D_NET *692 0.179744
*CONN
*I *893:hiz I *D CF_ADC_SAR12_sar_refs
*I *892:hiz I *D CF_ADC_SAR12
*I *897:analog_ctrl[13] O *D soc_sys
*CAP
1 *893:hiz 0.00691282
2 *892:hiz 0.00193462
3 *897:analog_ctrl[13] 0.0015766
4 *692:17 0.0154995
5 *692:15 0.0158974
6 *692:11 0.00924533
7 *692:9 0.0070508
8 *692:7 0.0086274
9 *892:hiz *892:sample_width[1] 1.52967e-05
10 *892:hiz *892:sample_width[5] 0.000147007
11 *892:hiz *892:test_sea 0
12 *892:hiz *892:iso_en 0.00239934
13 *892:hiz *892:icont_lv[1] 8.27745e-06
14 *892:hiz *892:dcen 3.0559e-05
15 *892:hiz *694:23 0.000759529
16 *892:hiz *695:13 0.000737505
17 *892:hiz *696:13 0.00067599
18 *892:hiz *719:21 0.00203875
19 *892:hiz *724:39 0.00112485
20 *892:hiz *728:43 0.00695717
21 *893:hiz *893:pd 0.000107689
22 *893:hiz *893:pd_ana 0.00923297
23 *692:7 *693:7 0.00159747
24 *692:7 *694:7 0.000395372
25 *692:9 *696:9 0
26 *692:9 *704:9 0.000364872
27 *692:9 *715:9 0.000618099
28 *692:9 *728:9 0.0287783
29 *692:9 *737:11 0.00107773
30 *692:9 *866:9 0.0150959
31 *692:9 *888:21 0.00139407
32 *692:15 *893:pd_ana 0.00248081
33 *692:15 *787:21 5.59166e-05
34 *692:17 *694:17 0.0151326
35 *692:17 *773:42 0.00880001
36 *692:17 *777:9 0.00252301
37 *692:17 *787:11 5.35797e-05
38 *893:refout_en *893:hiz 0
39 *42:13 *692:9 0
40 *649:9 *892:hiz 0.000821902
41 *651:9 *892:hiz 0.000739552
42 *657:21 *692:9 0
43 *658:19 *892:hiz 0
44 *685:9 *692:9 0.00685219
45 *691:7 *692:7 0.00198344
*RES
1 *897:analog_ctrl[13] *692:7 7.01573 
2 *692:7 *692:9 359.655 
3 *692:9 *692:11 0.5 
4 *692:11 *692:15 7.53 
5 *692:15 *692:17 360.165 
6 *692:17 *892:hiz 18.467 
7 *692:11 *893:hiz 26.0502 
*END

*D_NET *693 0.186104
*CONN
*I *892:iso_en I *D CF_ADC_SAR12
*I *897:analog_ctrl[14] O *D soc_sys
*CAP
1 *892:iso_en 0.0022817
2 *897:analog_ctrl[14] 0.000953243
3 *693:9 0.0139746
4 *693:7 0.0126461
5 *892:iso_en *892:sample_width[5] 0.00239934
6 *892:iso_en *892:test_sea 0.00027179
7 *892:iso_en *892:pd 0.00368139
8 *892:iso_en *892:dft_outc[1] 0.00114064
9 *892:iso_en *724:39 0.000149933
10 *693:7 *694:7 0.00159424
11 *693:9 *701:9 0
12 *693:9 *731:9 0.0598384
13 *693:9 *840:21 0
14 *892:hiz *892:iso_en 0.00239934
15 *892:sof *892:iso_en 4.88425e-05
16 *892:next *892:iso_en 0.000170624
17 *648:19 *892:iso_en 0.006823
18 *648:21 *693:9 7.1163e-05
19 *649:13 *693:9 0.0631255
20 *652:33 *693:9 0.0115905
21 *656:23 *892:iso_en 0.00134584
22 *657:7 *892:iso_en 0
23 *692:7 *693:7 0.00159747
*RES
1 *897:analog_ctrl[14] *693:7 4.91813 
2 *693:7 *693:9 713.085 
3 *693:9 *892:iso_en 23.4487 
*END

*D_NET *694 0.251828
*CONN
*I *893:enable_hv I *D CF_ADC_SAR12_sar_refs
*I *892:enable_hv I *D CF_ADC_SAR12
*I *897:analog_ctrl[15] O *D soc_sys
*CAP
1 *893:enable_hv 0.00934468
2 *892:enable_hv 0.000154813
3 *897:analog_ctrl[15] 0.00214163
4 *694:23 0.00600665
5 *694:17 0.0108633
6 *694:15 0.00867934
7 *694:11 0.0130126
8 *694:9 0.0101426
9 *694:7 0.0122842
10 *892:enable_hv *892:trimunit 0.000399641
11 *892:enable_hv *892:cap_trim[1] 3.71768e-05
12 *892:enable_hv *892:cap_trim[0] 9.29463e-05
13 *694:7 *695:7 0.00252603
14 *694:9 *702:9 0.0183258
15 *694:9 *702:13 0.00393039
16 *694:9 *710:9 0.00626174
17 *694:9 *720:9 0.0354043
18 *694:9 *760:17 1.79483e-05
19 *694:9 *844:17 0
20 *694:9 *860:9 0
21 *694:15 *893:EN_RESVDA 0
22 *694:15 *893:PWR_CTRL_VREF[0] 0
23 *694:17 *773:42 0.00584317
24 *694:17 *777:9 0.0261756
25 *694:23 *892:sample_width[0] 0.0110703
26 *694:23 *892:trimunit 0.0030369
27 *694:23 *892:icont_lv[1] 0.000221131
28 *694:23 *892:dly_inc 1.14185e-05
29 *694:23 *892:dft_outc[0] 0.00328863
30 *694:23 *719:21 0.0259894
31 *694:23 *723:13 0.000322564
32 *694:23 *728:43 0.0120489
33 *892:hiz *694:23 0.000759529
34 *893:pd_vcmbuf *893:enable_hv 0.000257949
35 *893:pd_vcmbuf *694:15 0.000356981
36 *650:13 *694:23 0.000350314
37 *652:13 *694:23 0.00132668
38 *657:9 *694:23 0.00145505
39 *672:39 *694:23 0.00256548
40 *679:9 *694:9 0
41 *692:7 *694:7 0.000395372
42 *692:17 *694:17 0.0151326
43 *693:7 *694:7 0.00159424
*RES
1 *897:analog_ctrl[15] *694:7 8.53067 
2 *694:7 *694:9 424.425 
3 *694:9 *694:11 0.5 
4 *694:11 *694:15 8.9284 
5 *694:15 *694:17 294.375 
6 *694:17 *694:23 48.5253 
7 *694:23 *892:enable_hv 4.95375 
8 *694:11 *893:enable_hv 24.1966 
*END

*D_NET *695 0.243008
*CONN
*I *892:trimunit I *D CF_ADC_SAR12
*I *897:analog_ctrl[16] O *D soc_sys
*CAP
1 *892:trimunit 0.00496165
2 *897:analog_ctrl[16] 0.00175663
3 *695:13 0.00721734
4 *695:11 0.00225569
5 *695:9 0.0131296
6 *695:7 0.0148862
7 *892:trimunit *892:sample_width[0] 0.00342298
8 *892:trimunit *892:dft_inc[2] 0
9 *892:trimunit *892:dft_inc[1] 0
10 *892:trimunit *892:dly_inc 0.0205308
11 *892:trimunit *725:13 0.001636
12 *892:trimunit *728:43 0.0120243
13 *892:trimunit *775:21 0.00316884
14 *695:7 *696:7 0.0021053
15 *695:9 *707:9 0.0608482
16 *695:9 *890:9 0
17 *695:13 *696:13 0.0117659
18 *695:13 *720:13 0
19 *695:13 *723:13 0.000112716
20 *695:13 *728:43 0.000800437
21 *695:13 *775:21 0
22 *892:hiz *695:13 0.000737505
23 *892:enable_hv *892:trimunit 0.000399641
24 *42:13 *695:9 0.0618166
25 *649:9 *695:13 6.04372e-05
26 *651:9 *695:13 0.0102066
27 *652:31 *695:13 0.000212004
28 *672:21 *892:trimunit 0.000826645
29 *672:39 *892:trimunit 0.00256288
30 *694:7 *695:7 0.00252603
31 *694:23 *892:trimunit 0.0030369
*RES
1 *897:analog_ctrl[16] *695:7 7.54013 
2 *695:7 *695:9 716.528 
3 *695:9 *695:11 2 
4 *695:11 *695:13 113.265 
5 *695:13 *892:trimunit 47.0017 
*END

*D_NET *696 0.240894
*CONN
*I *892:dly_inc I *D CF_ADC_SAR12
*I *897:analog_ctrl[17] O *D soc_sys
*CAP
1 *892:dly_inc 0.00443955
2 *897:analog_ctrl[17] 0.00166938
3 *696:13 0.0100801
4 *696:11 0.00564055
5 *696:9 0.0109462
6 *696:7 0.0126155
7 *892:dly_inc *892:icont_lv[1] 0.00035661
8 *892:dly_inc *892:dcen 0
9 *892:dly_inc *725:13 0.0203108
10 *892:dly_inc *775:29 0.000554973
11 *696:7 *697:7 0.00180618
12 *696:7 *702:7 0
13 *696:9 *704:9 0.0624825
14 *696:9 *715:9 0.000174417
15 *696:9 *757:19 0.00228879
16 *696:9 *772:17 0.00652478
17 *696:9 *888:21 0.00028583
18 *696:13 *892:icont_lv[1] 0.000653615
19 *696:13 *697:21 0
20 *696:13 *720:13 0
21 *696:13 *724:39 0.000728071
22 *696:13 *728:43 0.000733673
23 *696:13 *775:21 0
24 *892:hiz *696:13 0.00067599
25 *892:trimunit *892:dly_inc 0.0205308
26 *652:31 *696:13 0.000101386
27 *657:21 *696:9 0.0634115
28 *692:9 *696:9 0
29 *694:23 *892:dly_inc 1.14185e-05
30 *695:7 *696:7 0.0021053
31 *695:13 *696:13 0.0117659
*RES
1 *897:analog_ctrl[17] *696:7 6.78267 
2 *696:7 *696:9 715.253 
3 *696:9 *696:11 2 
4 *696:11 *696:13 135.69 
5 *696:13 *892:dly_inc 45.6452 
*END

*D_NET *697 0.250561
*CONN
*I *892:dcen I *D CF_ADC_SAR12
*I *897:analog_ctrl[18] O *D soc_sys
*CAP
1 *892:dcen 0.00384187
2 *897:analog_ctrl[18] 0.00190987
3 *697:21 0.0061852
4 *697:19 0.00243976
5 *697:9 0.0191245
6 *697:7 0.0209379
7 *892:dcen *892:sample_width[5] 0.00325846
8 *892:dcen *892:cap_trim[2] 0.000192035
9 *892:dcen *892:cap_trim[1] 1.35034e-05
10 *892:dcen *892:cap_trim[0] 0.0191884
11 *892:dcen *892:dft_outc[1] 1.35359e-05
12 *892:dcen *892:icont_lv[1] 0.00030473
13 *892:dcen *724:39 0.00124943
14 *892:dcen *726:13 0.0242611
15 *697:7 *698:11 6.03427e-05
16 *697:7 *701:7 0
17 *697:7 *702:7 0
18 *697:9 *718:11 0.0237902
19 *697:9 *735:9 0.00209205
20 *697:9 *781:17 0.0224678
21 *697:19 *892:test_sea 5.67494e-05
22 *697:19 *726:13 0.000112598
23 *697:21 *892:sample_width[1] 0.00159486
24 *697:21 *720:13 0.00203545
25 *697:21 *724:21 0.00940343
26 *697:21 *726:13 0.000340916
27 *892:hiz *892:dcen 3.0559e-05
28 *892:dly_inc *892:dcen 0
29 *651:13 *697:19 3.72899e-05
30 *651:31 *697:9 0.00096751
31 *656:13 *697:21 0.00623129
32 *658:21 *697:9 0.0646807
33 *691:9 *697:9 0.0119331
34 *696:7 *697:7 0.00180618
35 *696:13 *697:21 0
*RES
1 *897:analog_ctrl[18] *697:7 5.87953 
2 *697:7 *697:9 120.194 
3 *697:9 *697:19 3.67117 
4 *697:19 *697:21 101.19 
5 *697:21 *892:dcen 43.2 
*END

*D_NET *698 0.220562
*CONN
*I *892:pumpclk I *D CF_ADC_SAR12
*I *897:analog_ctrl[19] O *D soc_sys
*CAP
1 *892:pumpclk 0.00028041
2 *897:analog_ctrl[19] 0.000131971
3 *698:21 0.0173769
4 *698:19 0.0170965
5 *698:17 0.0075553
6 *698:15 0.0075553
7 *698:13 0.00538313
8 *698:11 0.0055151
9 *892:pumpclk *892:en_pump_lv 0.000198889
10 *698:11 *700:9 4.57838e-05
11 *698:11 *700:11 2.40271e-05
12 *698:11 *701:7 1.05516e-05
13 *698:13 *699:47 0.000902759
14 *698:13 *699:49 0.00075024
15 *698:13 *700:11 0.0252739
16 *698:13 *703:11 0.0030446
17 *698:13 *703:13 1.40378e-05
18 *698:13 *705:19 0.0219836
19 *698:17 *727:15 0.0320658
20 *698:17 *743:13 0.0390534
21 *698:21 *700:19 0.0362398
22 *72:13 *698:17 0
23 *112:37 *698:11 0
24 *112:37 *698:13 0
25 *697:7 *698:11 6.03427e-05
*RES
1 *897:analog_ctrl[19] *698:11 2.74967 
2 *698:11 *698:13 290.295 
3 *698:13 *698:15 0.5 
4 *698:15 *698:17 58.0425 
5 *698:17 *698:19 0.5 
6 *698:19 *698:21 68.4279 
7 *698:21 *892:pumpclk 3.84673 
*END

*D_NET *699 0.251604
*CONN
*I *895:en_pd I *D CF_BUF_HIZ
*I *897:analog_ctrl[1] O *D soc_sys
*CAP
1 *895:en_pd 0.0531993
2 *897:analog_ctrl[1] 0.000674141
3 *699:49 0.0710741
4 *699:47 0.0318664
5 *699:21 0.016089
6 *699:19 0.00277149
7 *699:19 *710:7 3.89907e-05
8 *699:19 *776:11 0
9 *699:21 *700:11 0
10 *699:21 *741:19 0.00257688
11 *699:21 *776:13 0.00696648
12 *699:47 *700:11 0.000865873
13 *699:47 *703:13 0.00088918
14 *699:47 *705:19 0.000959888
15 *699:47 *706:9 0.000878513
16 *699:47 *712:9 1.79536e-05
17 *699:47 *722:9 0.000963373
18 *699:47 *758:23 0.000568139
19 *699:47 *772:11 0.000323253
20 *699:47 *773:40 0.000358106
21 *699:47 *773:42 0
22 *699:47 *775:7 3.98312e-05
23 *699:49 *700:11 0.000575858
24 *699:49 *773:42 0.0124795
25 *895:e_pd *895:en_pd 0
26 *112:37 *699:19 0
27 *112:37 *699:21 0
28 *115:24 *895:en_pd 0.0135603
29 *118:67 *699:19 0.000147931
30 *118:67 *699:21 0.00177472
31 *118:67 *699:47 0.00695218
32 *118:75 *699:49 0.00643722
33 *119:18 *895:en_pd 0.016842
34 *648:37 *699:19 0
35 *665:7 *699:19 4.29253e-05
36 *676:9 *699:47 1.79536e-05
37 *698:13 *699:47 0.000902759
38 *698:13 *699:49 0.00075024
*RES
1 *897:analog_ctrl[1] *699:19 15.8039 
2 *699:19 *699:21 78.135 
3 *699:21 *699:47 41.6201 
4 *699:47 *699:49 59.0773 
5 *699:49 *895:en_pd 17.1746 
*END

*D_NET *700 0.195418
*CONN
*I *892:en_pump_lv I *D CF_ADC_SAR12
*I *897:analog_ctrl[20] O *D soc_sys
*CAP
1 *892:en_pump_lv 0.000128602
2 *897:analog_ctrl[20] 5.69514e-05
3 *700:19 0.014662
4 *700:17 0.0145334
5 *700:15 0.0141061
6 *700:13 0.0141061
7 *700:11 0.00765415
8 *700:9 0.0077111
9 *700:9 *701:7 3.89907e-05
10 *700:11 *705:19 0.000191773
11 *700:11 *722:9 0
12 *700:11 *741:19 0.00137138
13 *700:11 *776:13 0
14 *700:15 *717:15 0
15 *700:15 *733:15 0
16 *700:15 *734:15 0.00806523
17 *700:15 *748:13 0
18 *892:pumpclk *892:en_pump_lv 0.000198889
19 *67:247 *700:11 0.00189898
20 *111:27 *700:15 0
21 *118:75 *700:11 0.0102689
22 *119:22 *700:19 0.00530313
23 *653:14 *700:15 0.0320973
24 *698:11 *700:9 4.57838e-05
25 *698:11 *700:11 2.40271e-05
26 *698:13 *700:11 0.0252739
27 *698:21 *700:19 0.0362398
28 *699:21 *700:11 0
29 *699:47 *700:11 0.000865873
30 *699:49 *700:11 0.000575858
*RES
1 *897:analog_ctrl[20] *700:9 1.0564 
2 *700:9 *700:11 301.005 
3 *700:11 *700:13 0.5 
4 *700:13 *700:15 58.1007 
5 *700:15 *700:17 0.5 
6 *700:17 *700:19 66.7913 
7 *700:19 *892:en_pump_lv 3.08867 
*END

*D_NET *701 0.15752
*CONN
*I *892:scan_test_mode I *D CF_ADC_SAR12
*I *897:analog_ctrl[21] O *D soc_sys
*CAP
1 *892:scan_test_mode 0.000181943
2 *897:analog_ctrl[21] 0.00158957
3 *701:17 0.0174429
4 *701:15 0.0222891
5 *701:9 0.0109167
6 *701:7 0.00747815
7 *892:scan_test_mode *892:test_scanin 0.000338093
8 *701:7 *702:7 0.00167336
9 *701:9 *719:9 0.00231569
10 *701:9 *731:9 0.00152042
11 *701:9 *769:9 0.0195203
12 *701:9 *840:21 0.00317416
13 *701:15 *702:23 0.0117719
14 *701:15 *714:27 0.00018166
15 *701:15 *757:29 3.99991e-05
16 *701:15 *760:31 7.98204e-05
17 *701:15 *771:15 0.00136229
18 *701:17 *702:25 0.0374248
19 *701:17 *703:21 0
20 *701:17 *705:27 0
21 *73:21 *701:15 0
22 *646:10 *701:9 0.0171591
23 *648:21 *701:9 0.00101029
24 *693:9 *701:9 0
25 *697:7 *701:7 0
26 *698:11 *701:7 1.05516e-05
27 *700:9 *701:7 3.89907e-05
*RES
1 *897:analog_ctrl[21] *701:7 5.1512 
2 *701:7 *701:9 285.705 
3 *701:9 *701:15 18.955 
4 *701:15 *701:17 69.2031 
5 *701:17 *892:scan_test_mode 3.27673 
*END

*D_NET *702 0.171462
*CONN
*I *892:test_scanin I *D CF_ADC_SAR12
*I *897:analog_ctrl[22] O *D soc_sys
*CAP
1 *892:test_scanin 0.000290985
2 *897:analog_ctrl[22] 0.00268675
3 *702:25 0.0102571
4 *702:23 0.0136678
5 *702:13 0.00518732
6 *702:11 0.00151131
7 *702:9 0.0059488
8 *702:7 0.00860987
9 *892:test_scanin *892:test_scanen 8.07001e-05
10 *702:7 *703:11 5.86253e-05
11 *702:7 *704:7 0.00113875
12 *702:7 *707:7 0
13 *702:9 *710:9 0.00062665
14 *702:9 *738:9 0.000248105
15 *702:9 *760:17 0.000676224
16 *702:9 *860:9 0
17 *702:13 *760:17 0.00166871
18 *702:23 *714:27 0.013914
19 *702:23 *760:31 0.000155214
20 *702:23 *771:15 0.00161432
21 *702:25 *714:29 0.0213201
22 *892:scan_test_mode *892:test_scanin 0.000338093
23 *73:21 *702:23 0
24 *671:23 *702:23 0.00027891
25 *679:9 *702:9 0.00411047
26 *679:9 *702:13 0.00394715
27 *694:9 *702:9 0.0183258
28 *694:9 *702:13 0.00393039
29 *696:7 *702:7 0
30 *697:7 *702:7 0
31 *701:7 *702:7 0.00167336
32 *701:15 *702:23 0.0117719
33 *701:17 *702:25 0.0374248
*RES
1 *897:analog_ctrl[22] *702:7 8.58893 
2 *702:7 *702:9 207.945 
3 *702:9 *702:11 0.45 
4 *702:11 *702:13 76.335 
5 *702:13 *702:23 22.7297 
6 *702:23 *702:25 69.2892 
7 *702:25 *892:test_scanin 3.80057 
*END

*D_NET *703 0.129934
*CONN
*I *892:test_scanen I *D CF_ADC_SAR12
*I *897:analog_ctrl[23] O *D soc_sys
*CAP
1 *892:test_scanen 9.55688e-05
2 *897:analog_ctrl[23] 0.000807302
3 *703:21 0.0236796
4 *703:19 0.0264427
5 *703:13 0.00754139
6 *703:11 0.00549002
7 *892:test_scanen *892:sel_csel_dft[0] 0
8 *703:11 *704:7 5.86253e-05
9 *703:11 *705:17 0.00283465
10 *703:11 *706:9 1.35069e-05
11 *703:13 *705:19 0.0222865
12 *703:13 *706:9 0.0221002
13 *703:13 *722:9 0.000125347
14 *703:19 *705:25 0.00831315
15 *703:19 *706:15 0.00148627
16 *703:21 *892:sel_csel_dft[0] 6.67917e-06
17 *703:21 *733:17 0.00454694
18 *703:21 *734:17 0
19 *703:21 *735:17 0
20 *892:test_scanin *892:test_scanen 8.07001e-05
21 *72:13 *703:19 1.79809e-05
22 *112:37 *703:11 0
23 *698:13 *703:11 0.0030446
24 *698:13 *703:13 1.40378e-05
25 *699:47 *703:13 0.00088918
26 *701:17 *703:21 0
27 *702:7 *703:11 5.86253e-05
*RES
1 *897:analog_ctrl[23] *703:11 36.4097 
2 *703:11 *703:13 256.125 
3 *703:13 *703:19 13.8275 
4 *703:19 *703:21 67.9111 
5 *703:21 *892:test_scanen 2.64963 
*END

*D_NET *704 0.185599
*CONN
*I *892:test_sea I *D CF_ADC_SAR12
*I *897:analog_ctrl[24] O *D soc_sys
*CAP
1 *892:test_sea 0.00294631
2 *897:analog_ctrl[24] 0.00233035
3 *704:9 0.0135879
4 *704:7 0.012972
5 *892:test_sea *892:sample_width[1] 0.00385803
6 *892:test_sea *892:pd 0.00203414
7 *892:test_sea *892:dft_outc[1] 0.00237373
8 *892:test_sea *726:13 0.000983297
9 *704:7 *705:17 7.82245e-05
10 *704:7 *706:7 1.32141e-05
11 *704:7 *707:7 0
12 *704:9 *715:9 0.0615912
13 *704:9 *757:19 0.00155813
14 *704:9 *758:23 0.000221881
15 *704:9 *772:17 0.00462284
16 *704:9 *888:21 0.000779744
17 *892:hiz *892:test_sea 0
18 *892:sof *892:test_sea 0.00652792
19 *892:iso_en *892:test_sea 0.00027179
20 *892:next *892:test_sea 0.00232792
21 *648:19 *892:test_sea 2.00064e-05
22 *656:23 *892:test_sea 0.00239897
23 *692:9 *704:9 0.000364872
24 *696:9 *704:9 0.0624825
25 *697:19 *892:test_sea 5.67494e-05
26 *702:7 *704:7 0.00113875
27 *703:11 *704:7 5.86253e-05
*RES
1 *897:analog_ctrl[24] *704:7 6.84093 
2 *704:7 *704:9 704.415 
3 *704:9 *892:test_sea 19.6961 
*END

*D_NET *705 0.154959
*CONN
*I *892:resolution[0] I *D CF_ADC_SAR12
*I *897:analog_ctrl[25] O *D soc_sys
*CAP
1 *892:resolution[0] 9.09932e-05
2 *897:analog_ctrl[25] 0.000810765
3 *705:27 0.0169169
4 *705:25 0.0190066
5 *705:19 0.00686606
6 *705:17 0.00549616
7 *892:resolution[0] *892:sample_width[6] 2.20023e-05
8 *892:resolution[0] *892:resolution[1] 7.78551e-05
9 *705:17 *706:7 7.4988e-05
10 *705:17 *706:9 0.00274616
11 *705:19 *722:9 1.4548e-05
12 *705:25 *706:15 0
13 *705:27 *706:17 0.0367042
14 *72:13 *705:25 0.00944898
15 *112:37 *705:17 3.48887e-05
16 *698:13 *705:19 0.0219836
17 *699:47 *705:19 0.000959888
18 *700:11 *705:19 0.000191773
19 *701:17 *705:27 0
20 *703:11 *705:17 0.00283465
21 *703:13 *705:19 0.0222865
22 *703:19 *705:25 0.00831315
23 *704:7 *705:17 7.82245e-05
*RES
1 *897:analog_ctrl[25] *705:17 38.9154 
2 *705:17 *705:19 256.253 
3 *705:19 *705:25 15.5173 
4 *705:25 *705:27 67.8249 
5 *705:27 *892:resolution[0] 2.64963 
*END

*D_NET *706 0.150609
*CONN
*I *892:resolution[1] I *D CF_ADC_SAR12
*I *897:analog_ctrl[26] O *D soc_sys
*CAP
1 *892:resolution[1] 0.000118117
2 *897:analog_ctrl[26] 6.99727e-05
3 *706:17 0.0143759
4 *706:15 0.017572
5 *706:9 0.00863508
6 *706:7 0.00539084
7 *892:resolution[1] *892:sample_width[6] 4.21127e-05
8 *706:7 *707:7 9.78236e-05
9 *706:9 *722:9 0.0236386
10 *706:15 *727:15 0.00945405
11 *706:17 *714:29 0
12 *892:resolution[0] *892:resolution[1] 7.78551e-05
13 *112:37 *706:9 0.000680937
14 *663:23 *706:17 0.00643884
15 *699:47 *706:9 0.000878513
16 *703:11 *706:9 1.35069e-05
17 *703:13 *706:9 0.0221002
18 *703:19 *706:15 0.00148627
19 *704:7 *706:7 1.32141e-05
20 *705:17 *706:7 7.4988e-05
21 *705:17 *706:9 0.00274616
22 *705:25 *706:15 0
23 *705:27 *706:17 0.0367042
*RES
1 *897:analog_ctrl[26] *706:7 0.7812 
2 *706:7 *706:9 285.705 
3 *706:9 *706:15 15.5173 
4 *706:15 *706:17 68.2556 
5 *706:17 *892:resolution[1] 3.15963 
*END

*D_NET *707 0.186278
*CONN
*I *892:sample_width[0] I *D CF_ADC_SAR12
*I *897:analog_ctrl[27] O *D soc_sys
*CAP
1 *892:sample_width[0] 0.00429946
2 *897:analog_ctrl[27] 0.00274195
3 *707:9 0.0202211
4 *707:7 0.0186636
5 *892:sample_width[0] *892:sample_width[1] 3.05778e-05
6 *892:sample_width[0] *892:sample_width[5] 0
7 *892:sample_width[0] *725:13 0.000704599
8 *892:sample_width[0] *728:43 0.000108778
9 *892:sample_width[0] *775:21 0.00260616
10 *707:7 *708:7 0.00100598
11 *707:7 *709:7 0.000458015
12 *707:7 *713:7 0
13 *707:9 *746:9 0
14 *707:9 *781:13 0.000148028
15 *707:9 *784:9 0.0470765
16 *707:9 *890:9 0
17 *892:trimunit *892:sample_width[0] 0.00342298
18 *42:13 *707:9 7.92366e-05
19 *652:13 *892:sample_width[0] 0.000147489
20 *652:31 *892:sample_width[0] 2.1352e-05
21 *657:19 *892:sample_width[0] 0.00409862
22 *658:19 *892:sample_width[0] 0.00819226
23 *672:19 *892:sample_width[0] 7.86633e-05
24 *672:21 *892:sample_width[0] 0.000156018
25 *694:23 *892:sample_width[0] 0.0110703
26 *695:9 *707:9 0.0608482
27 *702:7 *707:7 0
28 *704:7 *707:7 0
29 *706:7 *707:7 9.78236e-05
*RES
1 *897:analog_ctrl[27] *707:7 7.5984 
2 *707:7 *707:9 706.965 
3 *707:9 *892:sample_width[0] 30.9285 
*END

*D_NET *708 0.188211
*CONN
*I *892:sample_width[1] I *D CF_ADC_SAR12
*I *897:analog_ctrl[28] O *D soc_sys
*CAP
1 *892:sample_width[1] 0.00326198
2 *897:analog_ctrl[28] 0.00064998
3 *708:9 0.0142547
4 *708:7 0.0116427
5 *892:sample_width[1] *892:sample_width[5] 0
6 *892:sample_width[1] *892:cap_trim[2] 0.00157975
7 *892:sample_width[1] *892:pd 3.47588e-05
8 *892:sample_width[1] *892:dft_outc[1] 0.00259213
9 *892:sample_width[1] *724:21 0.00248433
10 *892:sample_width[1] *726:13 0.0132124
11 *708:7 *709:7 0.000933625
12 *708:9 *723:9 0.0608593
13 *708:9 *759:19 0.00207942
14 *708:9 *791:9 0.000464218
15 *892:hiz *892:sample_width[1] 1.52967e-05
16 *892:sof *892:sample_width[1] 0.00556766
17 *892:test_sea *892:sample_width[1] 0.00385803
18 *892:sample_width[0] *892:sample_width[1] 3.05778e-05
19 *665:9 *708:9 0.000112534
20 *670:9 *708:9 1.40716e-05
21 *687:9 *708:9 0.061963
22 *697:21 *892:sample_width[1] 0.00159486
23 *707:7 *708:7 0.00100598
*RES
1 *897:analog_ctrl[28] *708:7 3.28667 
2 *708:7 *708:9 701.355 
3 *708:9 *892:sample_width[1] 25.1818 
*END

*D_NET *709 0.156262
*CONN
*I *892:sample_width[2] I *D CF_ADC_SAR12
*I *897:analog_ctrl[29] O *D soc_sys
*CAP
1 *892:sample_width[2] 0.000316987
2 *897:analog_ctrl[29] 0.00163338
3 *709:17 0.0157899
4 *709:15 0.0229585
5 *709:9 0.0141874
6 *709:7 0.00833521
7 *892:sample_width[2] *892:sample_width[3] 0.000601723
8 *892:sample_width[2] *892:sample_width[4] 1.33934e-05
9 *709:7 *711:7 0.00122481
10 *709:7 *713:7 0
11 *709:9 *735:9 0.0217185
12 *709:9 *852:13 0
13 *709:9 *891:9 0
14 *709:15 *718:15 0.000165501
15 *709:15 *735:15 0.00515072
16 *709:17 *711:21 0.0373733
17 *709:17 *712:17 0.0047179
18 *897:wbs_dat_i[29] *709:15 0.000476846
19 *897:wbs_dat_i[30] *709:15 0.000557805
20 *15:15 *709:17 6.83049e-06
21 *76:57 *709:15 0
22 *563:19 *709:17 9.66603e-05
23 *628:12 *709:15 0.000408207
24 *628:14 *709:17 1.39277e-05
25 *632:16 *709:15 0.000846283
26 *651:13 *709:9 0.0147912
27 *658:21 *709:9 0.00231569
28 *691:9 *709:9 0.00116979
29 *707:7 *709:7 0.000458015
30 *708:7 *709:7 0.000933625
*RES
1 *897:analog_ctrl[29] *709:7 5.8504 
2 *709:7 *709:9 270.405 
3 *709:9 *709:15 23.9659 
4 *709:15 *709:17 69.9783 
5 *709:17 *892:sample_width[2] 5.72403 
*END

*D_NET *710 0.281103
*CONN
*I *895:tp I *D CF_BUF_HIZ
*I *897:analog_ctrl[2] O *D soc_sys
*CAP
1 *895:tp 0
2 *897:analog_ctrl[2] 0.00258159
3 *710:29 0.0184802
4 *710:27 0.0185972
5 *710:21 0.00487421
6 *710:19 0.00485225
7 *710:13 0.0134606
8 *710:11 0.0133655
9 *710:9 0.0211649
10 *710:7 0.0237465
11 *710:7 *721:7 0.00267371
12 *710:9 *720:9 0.00701586
13 *710:9 *726:9 0
14 *710:9 *730:9 0.000341064
15 *710:9 *738:9 0.00101591
16 *710:9 *755:9 0.0438462
17 *710:9 *760:17 0.020745
18 *710:9 *860:9 0.000686951
19 *710:9 *861:19 0.00246278
20 *710:13 *895:clk2_boost 0.00735249
21 *710:13 *732:13 0.0363155
22 *710:19 *732:19 0.000172708
23 *710:21 *732:21 0.0142666
24 *710:29 *732:29 0.00705541
25 *895:vinn_n *710:29 0.00267066
26 *895:vinp_na *710:29 0.0037502
27 *665:7 *710:7 0.000486584
28 *679:9 *710:9 0.00109728
29 *680:9 *710:9 0.00109728
30 *694:9 *710:9 0.00626174
31 *699:19 *710:7 3.89907e-05
32 *702:9 *710:9 0.00062665
*RES
1 *897:analog_ctrl[2] *710:7 8.44327 
2 *710:7 *710:9 92.8897 
3 *710:9 *710:11 0.5 
4 *710:11 *710:13 54.0803 
5 *710:13 *710:19 4.7725 
6 *710:19 *710:21 133.965 
7 *710:21 *710:27 4.5175 
8 *710:27 *710:29 59.0843 
9 *710:29 *895:tp 2.5 
*END

*D_NET *711 0.161602
*CONN
*I *892:sample_width[3] I *D CF_ADC_SAR12
*I *897:analog_ctrl[30] O *D soc_sys
*CAP
1 *892:sample_width[3] 0.000432544
2 *897:analog_ctrl[30] 0.00103913
3 *711:21 0.0156241
4 *711:19 0.0183528
5 *711:9 0.0116274
6 *711:7 0.00950526
7 *892:sample_width[3] *892:sample_width[4] 6.98031e-05
8 *892:sample_width[3] *892:sample_width[6] 0
9 *711:7 *712:7 0.000215689
10 *711:7 *713:7 0.000471759
11 *711:9 *736:11 0.000562683
12 *711:9 *747:9 0
13 *711:9 *788:13 0.00832913
14 *711:9 *881:9 0.000674035
15 *711:19 *712:15 0.000335194
16 *711:19 *714:27 0.000203114
17 *711:19 *716:15 0.0116679
18 *711:19 *718:15 0.000248239
19 *711:19 *759:19 3.14528e-05
20 *711:19 *771:15 0.00224715
21 *892:sample_width[2] *892:sample_width[3] 0.000601723
22 *15:15 *711:21 0.00479513
23 *78:21 *711:19 0.000143781
24 *650:17 *711:9 0.0150666
25 *656:25 *711:9 0.00498053
26 *665:13 *711:19 0.0135285
27 *671:23 *711:19 0.000951117
28 *672:9 *711:9 0.00129965
29 *709:7 *711:7 0.00122481
30 *709:17 *711:21 0.0373733
*RES
1 *897:analog_ctrl[30] *711:7 4.16067 
2 *711:7 *711:9 272.445 
3 *711:9 *711:19 22.7271 
4 *711:19 *711:21 69.1169 
5 *711:21 *892:sample_width[3] 6.4671 
*END

*D_NET *712 0.114564
*CONN
*I *892:sample_width[4] I *D CF_ADC_SAR12
*I *897:analog_ctrl[31] O *D soc_sys
*CAP
1 *892:sample_width[4] 0.000234873
2 *897:analog_ctrl[31] 0.000219204
3 *712:17 0.0246944
4 *712:15 0.027377
5 *712:9 0.013981
6 *712:7 0.0112827
7 *892:sample_width[4] *892:sample_width[6] 0
8 *712:7 *713:7 0.000212864
9 *712:9 *741:19 1.7635e-05
10 *712:9 *749:9 0
11 *712:9 *750:9 0
12 *712:9 *751:9 0
13 *712:9 *752:9 0.00756468
14 *712:9 *754:9 0
15 *712:9 *874:15 0.000165638
16 *712:9 *878:11 0.000257249
17 *712:9 *880:11 0.000198972
18 *712:15 *716:15 0.0110064
19 *712:15 *718:15 0.00614314
20 *712:17 *716:17 0
21 *892:sample_width[3] *892:sample_width[4] 6.98031e-05
22 *892:sample_width[2] *892:sample_width[4] 1.33934e-05
23 *15:15 *712:17 0
24 *67:239 *712:9 0.000477909
25 *78:21 *712:15 0.000350189
26 *104:26 *712:9 0
27 *648:35 *712:9 1.79536e-05
28 *676:9 *712:9 0.00499207
29 *699:47 *712:9 1.79536e-05
30 *709:17 *712:17 0.0047179
31 *711:7 *712:7 0.000215689
32 *711:19 *712:15 0.000335194
*RES
1 *897:analog_ctrl[31] *712:7 1.18907 
2 *712:7 *712:9 271.935 
3 *712:9 *712:15 18.8385 
4 *712:15 *712:17 69.806 
5 *712:17 *892:sample_width[4] 3.32347 
*END

*D_NET *713 0.13533
*CONN
*I *892:sample_width[5] I *D CF_ADC_SAR12
*I *897:analog_ctrl[32] O *D soc_sys
*CAP
1 *892:sample_width[5] 0.00420997
2 *897:analog_ctrl[32] 0.00348894
3 *713:9 0.0402288
4 *713:7 0.0395077
5 *892:sample_width[5] *892:sample_width[7] 0
6 *892:sample_width[5] *892:cap_trim[2] 0.00141738
7 *892:sample_width[5] *719:21 0.00478734
8 *892:sample_width[5] *724:39 0.00475887
9 *892:sample_width[5] *725:13 0
10 *892:sample_width[5] *726:13 0.00229594
11 *892:sample_width[5] *728:43 0.00153153
12 *713:7 *714:7 0.00285765
13 *713:9 *800:9 0.00343907
14 *713:9 *807:9 0
15 *713:9 *814:9 0
16 *713:9 *830:13 0.000469137
17 *713:9 *862:9 0.000598161
18 *713:9 *886:9 0
19 *713:9 *889:9 0.0110247
20 *892:sample_width[1] *892:sample_width[5] 0
21 *892:hiz *892:sample_width[5] 0.000147007
22 *892:iso_en *892:sample_width[5] 0.00239934
23 *892:next *892:sample_width[5] 0.00750211
24 *892:sample_width[0] *892:sample_width[5] 0
25 *892:dcen *892:sample_width[5] 0.00325846
26 *67:217 *713:9 0
27 *647:23 *892:sample_width[5] 3.92756e-05
28 *648:19 *892:sample_width[5] 0.000683914
29 *677:9 *713:9 0
30 *682:9 *713:9 0
31 *689:9 *713:9 0
32 *690:9 *713:9 0
33 *707:7 *713:7 0
34 *709:7 *713:7 0
35 *711:7 *713:7 0.000471759
36 *712:7 *713:7 0.000212864
*RES
1 *897:analog_ctrl[32] *713:7 10.1039 
2 *713:7 *713:9 698.805 
3 *713:9 *892:sample_width[5] 29.733 
*END

*D_NET *714 0.150208
*CONN
*I *892:sample_width[6] I *D CF_ADC_SAR12
*I *897:analog_ctrl[33] O *D soc_sys
*CAP
1 *892:sample_width[6] 0.00132864
2 *897:analog_ctrl[33] 0.00250747
3 *714:29 0.0169108
4 *714:27 0.0203159
5 *714:9 0.0163975
6 *714:7 0.0141711
7 *892:sample_width[6] *892:sample_width[8] 2.20023e-05
8 *892:sample_width[6] *892:sample_width[9] 2.20023e-05
9 *714:7 *715:7 0.00225819
10 *714:9 *726:9 0.00304298
11 *714:9 *815:9 0
12 *714:9 *816:9 0.000916308
13 *714:9 *818:9 0
14 *714:9 *821:9 0.00354421
15 *714:9 *822:13 0.00864985
16 *714:9 *825:21 0
17 *714:27 *718:15 0
18 *714:27 *757:19 5.23147e-05
19 *714:27 *757:29 0.000270582
20 *714:27 *759:19 0.000114785
21 *714:27 *760:17 2.08692e-05
22 *714:27 *771:15 0.00166484
23 *892:sample_width[3] *892:sample_width[6] 0
24 *892:sample_width[4] *892:sample_width[6] 0
25 *892:resolution[0] *892:sample_width[6] 2.20023e-05
26 *892:resolution[1] *892:sample_width[6] 4.21127e-05
27 *73:21 *714:27 0.000121994
28 *663:23 *714:29 0.00935346
29 *665:13 *714:27 0.000379259
30 *671:23 *714:27 0.0096026
31 *680:9 *714:9 0
32 *689:9 *714:9 0
33 *701:15 *714:27 0.00018166
34 *702:23 *714:27 0.013914
35 *702:25 *714:29 0.0213201
36 *706:17 *714:29 0
37 *711:19 *714:27 0.000203114
38 *713:7 *714:7 0.00285765
*RES
1 *897:analog_ctrl[33] *714:7 9.22987 
2 *714:7 *714:9 272.445 
3 *714:9 *714:27 26.2184 
4 *714:27 *714:29 68.8585 
5 *714:29 *892:sample_width[6] 6.5247 
*END

*D_NET *715 0.18687
*CONN
*I *892:sample_width[7] I *D CF_ADC_SAR12
*I *897:analog_ctrl[34] O *D soc_sys
*CAP
1 *892:sample_width[7] 0.00662825
2 *897:analog_ctrl[34] 0.00210089
3 *715:9 0.0174136
4 *715:7 0.0128863
5 *892:sample_width[7] *730:13 0.0149044
6 *892:sample_width[7] *782:17 0
7 *715:7 *716:7 0.000423578
8 *715:7 *718:7 0
9 *715:7 *720:7 0
10 *715:9 *728:9 0.0609075
11 *715:9 *757:19 0.00145
12 *715:9 *758:23 0.000248105
13 *715:9 *758:25 0
14 *715:9 *772:17 0.00462284
15 *715:9 *888:21 0.000602243
16 *892:sample_width[5] *892:sample_width[7] 0
17 *42:13 *715:9 0
18 *657:21 *715:9 4.09002e-05
19 *692:9 *715:9 0.000618099
20 *696:9 *715:9 0.000174417
21 *704:9 *715:9 0.0615912
22 *714:7 *715:7 0.00225819
*RES
1 *897:analog_ctrl[34] *715:7 6.8992 
2 *715:7 *715:9 702.375 
3 *715:9 *892:sample_width[7] 31.5228 
*END

*D_NET *716 0.161125
*CONN
*I *892:sample_width[8] I *D CF_ADC_SAR12
*I *897:analog_ctrl[35] O *D soc_sys
*CAP
1 *892:sample_width[8] 0.000130775
2 *897:analog_ctrl[35] 0.000371087
3 *716:17 0.0181425
4 *716:15 0.0203018
5 *716:9 0.00717425
6 *716:7 0.00525529
7 *892:sample_width[8] *892:sample_width[9] 2.37391e-05
8 *716:7 *717:7 0.000400829
9 *716:7 *718:7 9.54624e-06
10 *716:9 *717:9 0.0233294
11 *716:9 *727:9 0.0225327
12 *716:9 *743:9 4.9021e-05
13 *716:9 *819:9 0.000356294
14 *716:15 *718:15 0.00010655
15 *716:15 *771:15 0.00213352
16 *716:17 *717:17 0.0358451
17 *892:sample_width[6] *892:sample_width[8] 2.20023e-05
18 *103:39 *716:9 0.00184313
19 *711:19 *716:15 0.0116679
20 *712:15 *716:15 0.0110064
21 *712:17 *716:17 0
22 *715:7 *716:7 0.000423578
*RES
1 *897:analog_ctrl[35] *716:7 1.77173 
2 *716:7 *716:9 268.365 
3 *716:9 *716:15 18.4889 
4 *716:15 *716:17 69.7199 
5 *716:17 *892:sample_width[8] 3.10338 
*END

*D_NET *717 0.16903
*CONN
*I *892:sample_width[9] I *D CF_ADC_SAR12
*I *897:analog_ctrl[36] O *D soc_sys
*CAP
1 *892:sample_width[9] 0.000122071
2 *897:analog_ctrl[36] 0.000356504
3 *717:17 0.0224615
4 *717:15 0.0249854
5 *717:9 0.00814515
6 *717:7 0.00585567
7 *717:7 *718:7 0.000400829
8 *717:9 *727:9 0.000355529
9 *717:9 *743:9 0.0238909
10 *717:9 *748:9 0.0002151
11 *717:9 *754:9 0.000724508
12 *717:9 *763:9 0
13 *717:15 *733:15 0.00890148
14 *892:sample_width[6] *892:sample_width[9] 2.20023e-05
15 *892:sample_width[8] *892:sample_width[9] 2.37391e-05
16 *103:39 *717:9 0.00145814
17 *111:27 *717:15 0.0115362
18 *700:15 *717:15 0
19 *716:7 *717:7 0.000400829
20 *716:9 *717:9 0.0233294
21 *716:17 *717:17 0.0358451
*RES
1 *897:analog_ctrl[36] *717:7 1.71347 
2 *717:7 *717:9 288.765 
3 *717:9 *717:15 18.3141 
4 *717:15 *717:17 66.1023 
5 *717:17 *892:sample_width[9] 2.91963 
*END

*D_NET *718 0.197254
*CONN
*I *892:cap_trim[0] I *D CF_ADC_SAR12
*I *897:analog_ctrl[37] O *D soc_sys
*CAP
1 *892:cap_trim[0] 0.00255306
2 *897:analog_ctrl[37] 0.00184029
3 *718:17 0.0302141
4 *718:15 0.033405
5 *718:11 0.0127587
6 *718:7 0.00885499
7 *892:cap_trim[0] *892:cap_trim[1] 0.000392034
8 *892:cap_trim[0] *724:39 0.0188024
9 *718:7 *719:7 0.00161432
10 *718:7 *720:7 0.00015339
11 *718:11 *741:25 0.000230873
12 *718:11 *757:19 0
13 *718:11 *772:17 0
14 *718:11 *781:17 0.0149576
15 *718:11 *848:23 0.000897897
16 *718:15 *735:15 0.000934111
17 *892:dcen *892:cap_trim[0] 0.0191884
18 *892:enable_hv *892:cap_trim[0] 9.29463e-05
19 *897:wbs_adr_i[28] *718:15 8.02886e-05
20 *897:wbs_adr_i[29] *718:15 4.21127e-05
21 *897:wbs_adr_i[30] *718:15 8.02886e-05
22 *897:wbs_adr_i[31] *718:15 4.21127e-05
23 *897:wbs_dat_i[28] *718:15 8.02886e-05
24 *897:wbs_dat_i[29] *718:15 0.00120384
25 *897:wbs_dat_i[30] *718:15 0.000796366
26 *897:wbs_dat_i[31] *718:15 0.000569542
27 *78:21 *718:15 0.00211764
28 *627:8 *718:15 4.21127e-05
29 *628:12 *718:15 0.00104352
30 *629:8 *718:15 0.000569542
31 *631:8 *718:15 0.000580979
32 *632:16 *718:15 0.00073112
33 *651:31 *718:11 0.0085162
34 *671:23 *718:15 0.00031376
35 *676:23 *718:15 0.0026906
36 *697:9 *718:11 0.0237902
37 *709:15 *718:15 0.000165501
38 *711:19 *718:15 0.000248239
39 *712:15 *718:15 0.00614314
40 *714:27 *718:15 0
41 *715:7 *718:7 0
42 *716:7 *718:7 9.54624e-06
43 *716:15 *718:15 0.00010655
44 *717:7 *718:7 0.000400829
*RES
1 *897:analog_ctrl[37] *718:7 5.99607 
2 *718:7 *718:11 45.2412 
3 *718:11 *718:15 25.8257 
4 *718:15 *718:17 72.4761 
5 *718:17 *892:cap_trim[0] 31.6662 
*END

*D_NET *719 0.241289
*CONN
*I *892:cap_trim[1] I *D CF_ADC_SAR12
*I *897:analog_ctrl[38] O *D soc_sys
*CAP
1 *892:cap_trim[1] 0.000889843
2 *897:analog_ctrl[38] 0.00107897
3 *719:21 0.00658325
4 *719:9 0.0381195
5 *719:7 0.033505
6 *892:cap_trim[1] *892:cap_trim[2] 4.86028e-05
7 *892:cap_trim[1] *892:icont_lv[1] 0.0036614
8 *892:cap_trim[1] *724:39 0.00336489
9 *719:7 *720:7 0.00160847
10 *719:9 *897:sram_dat_i[11] 0.0115706
11 *719:9 *731:9 0.0115905
12 *719:9 *740:11 0.00538152
13 *719:9 *769:9 0.000552776
14 *719:21 *892:icont_lv[1] 5.49193e-05
15 *719:21 *892:dft_outc[0] 0.00381842
16 *719:21 *723:13 0.00124298
17 *719:21 *728:43 0.0101054
18 *892:sample_width[5] *719:21 0.00478734
19 *892:hiz *719:21 0.00203875
20 *892:cap_trim[0] *892:cap_trim[1] 0.000392034
21 *892:dcen *892:cap_trim[1] 1.35034e-05
22 *892:enable_hv *892:cap_trim[1] 3.71768e-05
23 *646:10 *719:9 0.00954128
24 *648:21 *719:9 0.00976316
25 *650:13 *719:21 0.00113231
26 *652:31 *719:21 0.00254495
27 *652:33 *719:9 0.0359108
28 *658:21 *719:9 0
29 *672:39 *719:21 0.0120314
30 *694:23 *719:21 0.0259894
31 *701:9 *719:9 0.00231569
32 *718:7 *719:7 0.00161432
*RES
1 *897:analog_ctrl[38] *719:7 5.0638 
2 *719:7 *719:9 117.093 
3 *719:9 *719:21 49.97 
4 *719:21 *892:cap_trim[1] 13.5046 
*END

*D_NET *720 0.216836
*CONN
*I *892:cap_trim[2] I *D CF_ADC_SAR12
*I *897:analog_ctrl[39] O *D soc_sys
*CAP
1 *892:cap_trim[2] 0.00562418
2 *897:analog_ctrl[39] 0.00298422
3 *720:13 0.0098168
4 *720:11 0.00419263
5 *720:9 0.016423
6 *720:7 0.0194072
7 *892:cap_trim[2] *892:pd 0.0237353
8 *892:cap_trim[2] *892:dft_outc[1] 0.0062486
9 *892:cap_trim[2] *726:13 0.00786003
10 *720:7 *722:7 0.000117423
11 *720:7 *723:7 0.000462264
12 *720:7 *724:7 0
13 *720:9 *730:9 0.0605637
14 *720:9 *755:9 0.00112145
15 *720:9 *844:17 0
16 *720:13 *724:21 0.000692519
17 *720:13 *724:39 7.60031e-05
18 *720:13 *726:13 0.00181608
19 *892:sample_width[1] *892:cap_trim[2] 0.00157975
20 *892:sample_width[5] *892:cap_trim[2] 0.00141738
21 *892:cap_trim[1] *892:cap_trim[2] 4.86028e-05
22 *892:dcen *892:cap_trim[2] 0.000192035
23 *656:13 *720:13 0.00623129
24 *657:7 *892:cap_trim[2] 8.41703e-06
25 *694:9 *720:9 0.0354043
26 *695:13 *720:13 0
27 *696:13 *720:13 0
28 *697:21 *720:13 0.00203545
29 *710:9 *720:9 0.00701586
30 *715:7 *720:7 0
31 *718:7 *720:7 0.00015339
32 *719:7 *720:7 0.00160847
*RES
1 *897:analog_ctrl[39] *720:7 8.4724 
2 *720:7 *720:9 691.028 
3 *720:9 *720:11 2 
4 *720:11 *720:13 104.64 
5 *720:13 *892:cap_trim[2] 44.0978 
*END

*D_NET *721 0.288913
*CONN
*I *895:clk2_boost I *D CF_BUF_HIZ
*I *897:analog_ctrl[3] O *D soc_sys
*CAP
1 *895:clk2_boost 0.0654739
2 *897:analog_ctrl[3] 0.00286099
3 *721:9 0.0826894
4 *721:7 0.0200764
5 *895:clk2_boost *895:clk1_boostr 7.22966e-05
6 *895:clk2_boost *732:13 0.015246
7 *895:clk2_boost *732:29 0.0175908
8 *721:7 *732:7 0.00343275
9 *721:9 *724:9 0.00180666
10 *721:9 *725:9 0.0267235
11 *721:9 *732:9 0.000461317
12 *721:9 *778:9 0.0241716
13 *721:9 *802:9 0.0033917
14 *721:9 *807:9 0.00055234
15 *721:9 *828:17 0.00179646
16 *721:9 *831:13 0.0033917
17 *721:9 *837:13 0.000767362
18 *721:9 *863:9 0.00376894
19 *721:9 *867:9 0.00386343
20 *721:9 *886:9 0.00055234
21 *895:vinp_n *895:clk2_boost 6.40828e-05
22 *895:vinn_n *895:clk2_boost 1.92979e-05
23 *895:vinp_na *895:clk2_boost 5.69553e-05
24 *895:vinn_na *895:clk2_boost 5.61242e-05
25 *895:vinp_p *895:clk2_boost 0
26 *710:7 *721:7 0.00267371
27 *710:13 *895:clk2_boost 0.00735249
*RES
1 *897:analog_ctrl[3] *721:7 10.7739 
2 *721:7 *721:9 92.8036 
3 *721:9 *895:clk2_boost 22.3273 
*END

*D_NET *722 0.169755
*CONN
*I *892:icont_lv[0] I *D CF_ADC_SAR12
*I *897:analog_ctrl[40] O *D soc_sys
*CAP
1 *892:icont_lv[0] 0.000139924
2 *897:analog_ctrl[40] 8.56317e-05
3 *722:17 0.0247633
4 *722:15 0.0246234
5 *722:13 0.0129965
6 *722:11 0.0129965
7 *722:9 0.00558366
8 *722:7 0.00566929
9 *722:7 *723:7 0.000117423
10 *722:13 *754:13 0.0328646
11 *722:17 *759:33 0
12 *892:refby2 *722:17 0
13 *112:37 *722:9 0.0250558
14 *118:75 *722:9 0
15 *699:47 *722:9 0.000963373
16 *700:11 *722:9 0
17 *703:13 *722:9 0.000125347
18 *705:19 *722:9 1.4548e-05
19 *706:9 *722:9 0.0236386
20 *720:7 *722:7 0.000117423
*RES
1 *897:analog_ctrl[40] *722:7 0.839467 
2 *722:7 *722:9 287.745 
3 *722:9 *722:11 0.5 
4 *722:11 *722:13 50.1182 
5 *722:13 *722:15 0.5 
6 *722:15 *722:17 65.5855 
7 *722:17 *892:icont_lv[0] 2.94963 
*END

*D_NET *723 0.206406
*CONN
*I *892:icont_lv[1] I *D CF_ADC_SAR12
*I *897:analog_ctrl[41] O *D soc_sys
*CAP
1 *892:icont_lv[1] 0.00460361
2 *897:analog_ctrl[41] 0.000733476
3 *723:13 0.00617874
4 *723:11 0.00157514
5 *723:9 0.0196979
6 *723:7 0.0204314
7 *892:icont_lv[1] *892:dft_outc[0] 0.00711795
8 *892:icont_lv[1] *724:39 0.0211489
9 *892:icont_lv[1] *728:43 0.00434962
10 *723:7 *724:7 0.00101099
11 *723:9 *739:11 0.000764697
12 *723:9 *759:19 0.00112447
13 *723:9 *770:17 0.000621112
14 *723:9 *790:17 0.000112534
15 *723:9 *791:9 0.003258
16 *723:13 *775:21 0.00053853
17 *892:hiz *892:icont_lv[1] 8.27745e-06
18 *892:cap_trim[1] *892:icont_lv[1] 0.0036614
19 *892:dly_inc *892:icont_lv[1] 0.00035661
20 *892:dcen *892:icont_lv[1] 0.00030473
21 *649:9 *723:13 4.12775e-05
22 *650:13 *723:13 0.00867605
23 *652:13 *723:13 0.0067196
24 *657:9 *723:13 2.10905e-05
25 *670:9 *723:9 0
26 *671:9 *723:9 0.0172096
27 *672:21 *723:13 6.23629e-05
28 *672:39 *892:icont_lv[1] 0.0120314
29 *694:23 *892:icont_lv[1] 0.000221131
30 *694:23 *723:13 0.000322564
31 *695:13 *723:13 0.000112716
32 *696:13 *892:icont_lv[1] 0.000653615
33 *708:9 *723:9 0.0608593
34 *719:21 *892:icont_lv[1] 5.49193e-05
35 *719:21 *723:13 0.00124298
36 *720:7 *723:7 0.000462264
37 *722:7 *723:7 0.000117423
*RES
1 *897:analog_ctrl[41] *723:7 3.34493 
2 *723:7 *723:9 692.047 
3 *723:9 *723:11 2 
4 *723:11 *723:13 84.285 
5 *723:13 *892:icont_lv[1] 47.0561 
*END

*D_NET *724 0.241814
*CONN
*I *892:dft_inc[0] I *D CF_ADC_SAR12
*I *897:analog_ctrl[42] O *D soc_sys
*CAP
1 *892:dft_inc[0] 7.14824e-05
2 *897:analog_ctrl[42] 0.00367505
3 *724:39 0.00383888
4 *724:21 0.00864079
5 *724:19 0.00498758
6 *724:9 0.0180374
7 *724:7 0.0215982
8 *892:dft_inc[0] *892:dft_inc[1] 0.000248509
9 *892:dft_inc[0] *892:dft_outc[2] 0.000219734
10 *724:7 *725:7 0.00346602
11 *724:9 *732:9 0.0466199
12 *724:9 *778:9 0.0583884
13 *724:9 *806:17 0.000348678
14 *724:9 *811:9 0.00182795
15 *724:9 *855:9 0.00205252
16 *724:21 *726:13 0.000946262
17 *724:39 *728:43 2.77839e-05
18 *892:sample_width[1] *724:21 0.00248433
19 *892:sample_width[5] *724:39 0.00475887
20 *892:hiz *724:39 0.00112485
21 *892:iso_en *724:39 0.000149933
22 *892:cap_trim[1] *724:39 0.00336489
23 *892:cap_trim[0] *724:39 0.0188024
24 *892:icont_lv[1] *724:39 0.0211489
25 *892:dcen *724:39 0.00124943
26 *657:7 *724:39 1.79536e-05
27 *696:13 *724:39 0.000728071
28 *697:21 *724:21 0.00940343
29 *720:7 *724:7 0
30 *720:13 *724:21 0.000692519
31 *720:13 *724:39 7.60031e-05
32 *721:9 *724:9 0.00180666
33 *723:7 *724:7 0.00101099
*RES
1 *897:analog_ctrl[42] *724:7 11.1235 
2 *724:7 *724:9 116.06 
3 *724:9 *724:19 3.41617 
4 *724:19 *724:21 116.715 
5 *724:21 *724:39 49.4373 
6 *724:39 *892:dft_inc[0] 2.91375 
*END

*D_NET *725 0.236393
*CONN
*I *892:dft_inc[1] I *D CF_ADC_SAR12
*I *897:analog_ctrl[43] O *D soc_sys
*CAP
1 *892:dft_inc[1] 0.000294623
2 *897:analog_ctrl[43] 0.0028688
3 *725:13 0.00839232
4 *725:11 0.0080977
5 *725:9 0.0205127
6 *725:7 0.0233815
7 *892:dft_inc[1] *892:dft_inc[2] 9.00173e-05
8 *892:dft_inc[1] *892:dft_outc[2] 0.000186345
9 *725:7 *726:7 0.0028356
10 *725:9 *756:9 0.00118516
11 *725:9 *778:9 0.00212033
12 *725:9 *780:9 0.0586795
13 *725:9 *800:9 0.000397671
14 *725:9 *807:9 0.000993218
15 *725:9 *814:9 0.000596771
16 *725:9 *837:13 0.0024513
17 *725:9 *886:9 0.00111061
18 *725:13 *730:13 0.0362455
19 *725:13 *775:29 3.92474e-05
20 *892:sample_width[5] *725:13 0
21 *892:sample_width[0] *725:13 0.000704599
22 *892:trimunit *892:dft_inc[1] 0
23 *892:trimunit *725:13 0.001636
24 *892:dft_inc[0] *892:dft_inc[1] 0.000248509
25 *892:dly_inc *725:13 0.0203108
26 *658:19 *725:13 0.00814596
27 *690:9 *725:9 0.00467855
28 *721:9 *725:9 0.0267235
29 *724:7 *725:7 0.00346602
*RES
1 *897:analog_ctrl[43] *725:7 10.5409 
2 *725:7 *725:9 116.921 
3 *725:9 *725:11 0.5 
4 *725:11 *725:13 57.5181 
5 *725:13 *892:dft_inc[1] 7.49375 
*END

*D_NET *726 0.207146
*CONN
*I *892:dft_inc[2] I *D CF_ADC_SAR12
*I *897:analog_ctrl[44] O *D soc_sys
*CAP
1 *892:dft_inc[2] 4.52565e-05
2 *897:analog_ctrl[44] 0.00295899
3 *726:13 0.008497
4 *726:11 0.00845174
5 *726:9 0.0339934
6 *726:7 0.0369524
7 *726:7 *727:7 0.000414119
8 *726:7 *728:7 0.000762833
9 *726:7 *729:7 0
10 *726:7 *730:7 0
11 *726:9 *738:9 0
12 *726:9 *755:9 0
13 *726:9 *760:17 0
14 *726:9 *815:9 0.000917948
15 *726:9 *816:9 0.00134129
16 *726:9 *821:9 0.000986404
17 *726:9 *822:13 0.00165404
18 *726:9 *825:21 0.000156716
19 *726:9 *870:13 0.00124821
20 *726:9 *885:9 0.000156716
21 *726:13 *892:pd 0.00055203
22 *726:13 *892:dft_outc[1] 0.00737368
23 *892:sample_width[1] *726:13 0.0132124
24 *892:sample_width[5] *726:13 0.00229594
25 *892:sof *726:13 1.78103e-05
26 *892:test_sea *726:13 0.000983297
27 *892:next *726:13 0.00749636
28 *892:trimunit *892:dft_inc[2] 0
29 *892:cap_trim[2] *726:13 0.00786003
30 *892:dft_inc[1] *892:dft_inc[2] 9.00173e-05
31 *892:dcen *726:13 0.0242611
32 *40:13 *726:9 0.0334069
33 *647:23 *726:13 3.92756e-05
34 *648:19 *726:13 0.000683914
35 *656:13 *726:13 0.00124216
36 *697:19 *726:13 0.000112598
37 *697:21 *726:13 0.000340916
38 *710:9 *726:9 0
39 *714:9 *726:9 0.00304298
40 *720:13 *726:13 0.00181608
41 *724:21 *726:13 0.000946262
42 *725:7 *726:7 0.0028356
*RES
1 *897:analog_ctrl[44] *726:7 9.259 
2 *726:7 *726:9 115.801 
3 *726:9 *726:11 0.5 
4 *726:11 *726:13 56.2774 
5 *726:13 *892:dft_inc[2] 1.5725 
*END

*D_NET *727 0.17426
*CONN
*I *892:dft_inc[3] I *D CF_ADC_SAR12
*I *897:analog_ctrl[45] O *D soc_sys
*CAP
1 *892:dft_inc[3] 0.000143339
2 *897:analog_ctrl[45] 0.000435146
3 *727:17 0.0262695
4 *727:15 0.0368613
5 *727:9 0.0156394
6 *727:7 0.00533941
7 *892:dft_inc[3] *892:pd_ana 0
8 *727:7 *728:7 0.000411373
9 *727:9 *748:9 0.0215123
10 *727:9 *819:9 0.000929691
11 *727:15 *743:13 0.000339353
12 *727:17 *759:33 0
13 *72:13 *727:15 0
14 *73:21 *727:15 3.97351e-05
15 *103:39 *727:9 0.00151724
16 *698:17 *727:15 0.0320658
17 *706:15 *727:15 0.00945405
18 *716:9 *727:9 0.0225327
19 *717:9 *727:9 0.000355529
20 *726:7 *727:7 0.000414119
*RES
1 *897:analog_ctrl[45] *727:7 1.83 
2 *727:7 *727:9 265.815 
3 *727:9 *727:15 49.8946 
4 *727:15 *727:17 68.4279 
5 *727:17 *892:dft_inc[3] 2.96088 
*END

*D_NET *728 0.224172
*CONN
*I *892:dft_outc[0] I *D CF_ADC_SAR12
*I *897:analog_ctrl[46] O *D soc_sys
*CAP
1 *892:dft_outc[0] 0.00169799
2 *897:analog_ctrl[46] 0.00195504
3 *728:43 0.00806945
4 *728:9 0.0240803
5 *728:7 0.0196639
6 *892:dft_outc[0] *892:pd 1.87206e-05
7 *892:dft_outc[0] *892:dft_outc[2] 0.000154911
8 *892:dft_outc[0] *892:dft_outc[1] 4.76864e-05
9 *728:7 *729:7 0.00223489
10 *728:9 *737:11 0.00121365
11 *728:9 *757:19 0.000145236
12 *728:9 *888:21 0.000824123
13 *728:43 *775:19 0.000148616
14 *728:43 *775:21 0.00286558
15 *892:sample_width[5] *728:43 0.00153153
16 *892:hiz *728:43 0.00695717
17 *892:sample_width[0] *728:43 0.000108778
18 *892:trimunit *728:43 0.0120243
19 *892:icont_lv[1] *892:dft_outc[0] 0.00711795
20 *892:icont_lv[1] *728:43 0.00434962
21 *42:13 *728:9 0
22 *649:9 *728:43 0.000947919
23 *651:9 *728:43 0.000924872
24 *652:31 *728:43 0.00250768
25 *657:19 *728:43 0.00274808
26 *672:39 *892:dft_outc[0] 7.96997e-05
27 *672:39 *728:43 7.09845e-05
28 *692:9 *728:9 0.0287783
29 *694:23 *892:dft_outc[0] 0.00328863
30 *694:23 *728:43 0.0120489
31 *695:13 *728:43 0.000800437
32 *696:13 *728:43 0.000733673
33 *715:9 *728:9 0.0609075
34 *719:21 *892:dft_outc[0] 0.00381842
35 *719:21 *728:43 0.0101054
36 *724:39 *728:43 2.77839e-05
37 *726:7 *728:7 0.000762833
38 *727:7 *728:7 0.000411373
*RES
1 *897:analog_ctrl[46] *728:7 6.95747 
2 *728:7 *728:9 686.565 
3 *728:9 *728:43 49.7547 
4 *728:43 *892:dft_outc[0] 20.3232 
*END

*D_NET *729 0.22813
*CONN
*I *892:dft_outc[1] I *D CF_ADC_SAR12
*I *897:analog_ctrl[47] O *D soc_sys
*CAP
1 *892:dft_outc[1] 0.0264356
2 *897:analog_ctrl[47] 0.00204889
3 *729:9 0.0679753
4 *729:7 0.0435886
5 *892:dft_outc[1] *892:sel_csel_dft[0] 0.00214818
6 *892:dft_outc[1] *892:pd 0.0130429
7 *892:dft_outc[1] *892:dft_outc[2] 4.76864e-05
8 *892:dft_outc[1] *759:33 0
9 *729:7 *730:7 0.0025741
10 *729:9 *746:9 0.00308523
11 *729:9 *755:9 0.020143
12 *729:9 *861:19 0.0110159
13 *729:9 *890:9 0.00129958
14 *892:sample_width[1] *892:dft_outc[1] 0.00259213
15 *892:sof *892:dft_outc[1] 0.0015763
16 *892:test_sea *892:dft_outc[1] 0.00237373
17 *892:iso_en *892:dft_outc[1] 0.00114064
18 *892:next *892:dft_outc[1] 0.000327263
19 *892:cap_trim[2] *892:dft_outc[1] 0.0062486
20 *892:dcen *892:dft_outc[1] 1.35359e-05
21 *892:dft_outc[0] *892:dft_outc[1] 4.76864e-05
22 *646:8 *892:dft_outc[1] 0.00149489
23 *647:23 *892:dft_outc[1] 0.00117612
24 *648:19 *892:dft_outc[1] 0.00144897
25 *656:23 *892:dft_outc[1] 0.000423527
26 *674:9 *729:9 0.0024724
27 *678:9 *729:9 0.0037807
28 *726:7 *729:7 0
29 *726:13 *892:dft_outc[1] 0.00737368
30 *728:7 *729:7 0.00223489
*RES
1 *897:analog_ctrl[47] *729:7 7.97713 
2 *729:7 *729:9 114.94 
3 *729:9 *892:dft_outc[1] 7.97508 
*END

*D_NET *730 0.23696
*CONN
*I *892:dft_outc[2] I *D CF_ADC_SAR12
*I *897:analog_ctrl[48] O *D soc_sys
*CAP
1 *892:dft_outc[2] 0.000292445
2 *897:analog_ctrl[48] 0.00249136
3 *730:13 0.0103386
4 *730:11 0.0100461
5 *730:9 0.0107705
6 *730:7 0.0132618
7 *730:7 *731:7 0.00156733
8 *730:7 *735:7 0
9 *730:9 *755:9 0.011874
10 *730:9 *783:17 0.0529987
11 *730:9 *844:17 0.00337187
12 *730:9 *853:13 0
13 *730:13 *775:29 0.00471009
14 *730:13 *782:17 0
15 *892:sample_width[7] *730:13 0.0149044
16 *892:dft_inc[1] *892:dft_outc[2] 0.000186345
17 *892:dft_inc[0] *892:dft_outc[2] 0.000219734
18 *892:dft_outc[1] *892:dft_outc[2] 4.76864e-05
19 *892:dft_outc[0] *892:dft_outc[2] 0.000154911
20 *710:9 *730:9 0.000341064
21 *720:9 *730:9 0.0605637
22 *725:13 *730:13 0.0362455
23 *726:7 *730:7 0
24 *729:7 *730:7 0.0025741
*RES
1 *897:analog_ctrl[48] *730:7 8.41413 
2 *730:7 *730:9 687.585 
3 *730:9 *730:11 0.5 
4 *730:11 *730:13 55.2748 
5 *730:13 *892:dft_outc[2] 8.00375 
*END

*D_NET *731 0.178177
*CONN
*I *892:sel_csel_dft[0] I *D CF_ADC_SAR12
*I *897:analog_ctrl[49] O *D soc_sys
*CAP
1 *892:sel_csel_dft[0] 0.00516536
2 *897:analog_ctrl[49] 0.00136783
3 *731:9 0.015634
4 *731:7 0.0118365
5 *892:sel_csel_dft[0] *892:sel_csel_dft[1] 9.23985e-05
6 *892:sel_csel_dft[0] *892:pd 0.000219529
7 *892:sel_csel_dft[0] *733:17 1.86715e-05
8 *731:7 *733:7 0.000706308
9 *731:7 *734:7 1.32141e-05
10 *731:7 *735:7 0
11 *892:test_scanen *892:sel_csel_dft[0] 0
12 *892:dft_outc[1] *892:sel_csel_dft[0] 0.00214818
13 *646:8 *892:sel_csel_dft[0] 0.0102582
14 *648:21 *731:9 0.0561934
15 *653:8 *892:sel_csel_dft[0] 0
16 *693:9 *731:9 0.0598384
17 *701:9 *731:9 0.00152042
18 *703:21 *892:sel_csel_dft[0] 6.67917e-06
19 *719:9 *731:9 0.0115905
20 *730:7 *731:7 0.00156733
*RES
1 *897:analog_ctrl[49] *731:7 4.9764 
2 *731:7 *731:9 675.345 
3 *731:9 *892:sel_csel_dft[0] 22.2658 
*END

*D_NET *732 0.305669
*CONN
*I *895:e_n_boost I *D CF_BUF_HIZ
*I *897:analog_ctrl[4] O *D soc_sys
*CAP
1 *895:e_n_boost 0.000237472
2 *897:analog_ctrl[4] 0.00384559
3 *732:29 0.0180358
4 *732:27 0.0178322
5 *732:21 0.0046613
6 *732:19 0.0047385
7 *732:13 0.0146965
8 *732:11 0.0145854
9 *732:9 0.0210933
10 *732:7 0.0249389
11 *895:e_n_boost *895:clk1_boostr 9.58907e-05
12 *895:e_n_boost *895:e_na_boost 6.29859e-05
13 *732:7 *743:7 0.000393285
14 *732:9 *742:9 0.00725609
15 *732:9 *793:9 0.00376569
16 *732:9 *796:9 0.000869031
17 *732:9 *798:9 0.000869031
18 *732:9 *804:9 0.000869031
19 *732:9 *806:15 0.0133704
20 *732:9 *806:17 0.000824588
21 *732:9 *811:9 0.000886134
22 *732:9 *832:21 0.000869031
23 *732:9 *836:17 0.00112261
24 *732:9 *847:13 0.0027578
25 *732:9 *855:9 0.000795438
26 *732:29 *895:clk1_boostr 1.8849e-05
27 *895:clk2_boost *732:13 0.015246
28 *895:clk2_boost *732:29 0.0175908
29 *895:vinp_n *895:e_n_boost 3.07325e-05
30 *895:vinn_n *732:29 0.00054877
31 *895:vinp_na *895:e_n_boost 1.21705e-05
32 *895:vinn_na *732:29 0.00442523
33 *710:13 *732:13 0.0363155
34 *710:19 *732:19 0.000172708
35 *710:21 *732:21 0.0142666
36 *710:29 *732:29 0.00705541
37 *721:7 *732:7 0.00343275
38 *721:9 *732:9 0.000461317
39 *724:9 *732:9 0.0466199
*RES
1 *897:analog_ctrl[4] *732:7 11.2401 
2 *732:7 *732:9 92.4591 
3 *732:9 *732:11 0.5 
4 *732:11 *732:13 56.8189 
5 *732:13 *732:19 5.0275 
6 *732:19 *732:21 131.55 
7 *732:21 *732:27 2.9875 
8 *732:27 *732:29 59.5865 
9 *732:29 *895:e_n_boost 7.55875 
*END

*D_NET *733 0.145517
*CONN
*I *892:sel_csel_dft[1] I *D CF_ADC_SAR12
*I *897:analog_ctrl[50] O *D soc_sys
*CAP
1 *892:sel_csel_dft[1] 6.90033e-05
2 *897:analog_ctrl[50] 0.000505114
3 *733:17 0.0142801
4 *733:15 0.0179595
5 *733:9 0.00931103
6 *733:7 0.00606775
7 *892:sel_csel_dft[1] *892:sel_csel_dft[2] 9.23985e-05
8 *733:7 *734:7 0.000706308
9 *733:9 *734:9 0.0235825
10 *733:9 *745:9 0.000156509
11 *733:9 *761:15 0.000129951
12 *733:9 *763:9 0
13 *733:9 *764:9 7.5553e-05
14 *733:9 *767:9 0.000689281
15 *733:9 *771:11 0.00145814
16 *733:9 *782:9 0.0199413
17 *733:9 *826:21 3.48887e-05
18 *733:15 *734:15 0
19 *733:17 *734:17 0.0358696
20 *733:17 *735:17 2.482e-05
21 *892:sel_csel_dft[0] *892:sel_csel_dft[1] 9.23985e-05
22 *892:sel_csel_dft[0] *733:17 1.86715e-05
23 *67:249 *733:9 0
24 *111:27 *733:15 0.000297263
25 *700:15 *733:15 0
26 *703:21 *733:17 0.00454694
27 *717:15 *733:15 0.00890148
28 *731:7 *733:7 0.000706308
*RES
1 *897:analog_ctrl[50] *733:7 2.5292 
2 *733:7 *733:9 273.975 
3 *733:9 *733:15 15.1677 
4 *733:15 *733:17 66.1884 
5 *733:17 *892:sel_csel_dft[1] 2.64963 
*END

*D_NET *734 0.164868
*CONN
*I *892:sel_csel_dft[2] I *D CF_ADC_SAR12
*I *897:analog_ctrl[51] O *D soc_sys
*CAP
1 *892:sel_csel_dft[2] 0.000121596
2 *897:analog_ctrl[51] 0.000517573
3 *734:17 0.0078788
4 *734:15 0.0118051
5 *734:9 0.0088768
6 *734:7 0.00534647
7 *892:sel_csel_dft[2] *892:sel_csel_dft[3] 6.63925e-05
8 *734:7 *735:7 0.000725915
9 *734:9 *745:9 0.0227067
10 *734:9 *761:15 0.000116216
11 *734:9 *771:11 0.0017368
12 *734:9 *826:21 0.000488502
13 *734:15 *748:13 0
14 *734:15 *761:21 0
15 *734:17 *735:17 0.0361524
16 *892:sel_csel_dft[1] *892:sel_csel_dft[2] 9.23985e-05
17 *700:15 *734:15 0.00806523
18 *703:21 *734:17 0
19 *731:7 *734:7 1.32141e-05
20 *733:7 *734:7 0.000706308
21 *733:9 *734:9 0.0235825
22 *733:15 *734:15 0
23 *733:17 *734:17 0.0358696
*RES
1 *897:analog_ctrl[51] *734:7 2.58747 
2 *734:7 *734:9 269.895 
3 *734:9 *734:15 15.1094 
4 *734:15 *734:17 66.6191 
5 *734:17 *892:sel_csel_dft[2] 3.54213 
*END

*D_NET *735 0.155657
*CONN
*I *892:sel_csel_dft[3] I *D CF_ADC_SAR12
*I *897:analog_ctrl[52] O *D soc_sys
*CAP
1 *892:sel_csel_dft[3] 0.000122878
2 *897:analog_ctrl[52] 0.00181079
3 *735:17 0.0182169
4 *735:15 0.0217524
5 *735:9 0.00780004
6 *735:7 0.00595242
7 *735:7 *736:7 0.00135607
8 *735:7 *737:11 0.000247259
9 *892:sel_csel_dft[2] *892:sel_csel_dft[3] 6.63925e-05
10 *892:reset_n *892:sel_csel_dft[3] 0
11 *897:wbs_dat_i[30] *735:15 0.000555194
12 *629:8 *735:15 0.000307411
13 *629:10 *735:17 0.000100798
14 *632:16 *735:15 0.000843671
15 *651:13 *735:9 4.79496e-05
16 *676:23 *735:15 0.007871
17 *691:9 *735:9 0.0218071
18 *697:9 *735:9 0.00209205
19 *703:21 *735:17 0
20 *709:9 *735:9 0.0217185
21 *709:15 *735:15 0.00515072
22 *718:15 *735:15 0.000934111
23 *730:7 *735:7 0
24 *731:7 *735:7 0
25 *733:17 *735:17 2.482e-05
26 *734:7 *735:7 0.000725915
27 *734:17 *735:17 0.0361524
*RES
1 *897:analog_ctrl[52] *735:7 5.90867 
2 *735:7 *735:9 247.965 
3 *735:9 *735:15 18.3141 
4 *735:15 *735:17 70.2367 
5 *735:17 *892:sel_csel_dft[3] 3.03213 
*END

*D_NET *736 0.107281
*CONN
*I *893:vref[0] I *D CF_ADC_SAR12_sar_refs
*I *897:analog_ctrl[53] O *D soc_sys
*CAP
1 *893:vref[0] 0.0201701
2 *897:analog_ctrl[53] 0.000940275
3 *736:11 0.036494
4 *736:7 0.0172642
5 *893:vref[0] *893:vref[1] 3.00472e-05
6 *736:7 *737:11 0.00135073
7 *736:11 *747:9 0.00182792
8 *736:11 *783:15 0.000384906
9 *736:11 *788:13 0.000607733
10 *736:11 *790:17 0
11 *736:11 *859:9 0.00062336
12 *736:11 *881:9 0.000697036
13 *650:35 *736:11 0.00691436
14 *652:33 *736:11 0.00221378
15 *656:25 *736:11 0.000235648
16 *672:9 *736:11 0.0116874
17 *681:9 *736:11 0.00215029
18 *684:9 *736:11 0.00177001
19 *711:9 *736:11 0.000562683
20 *735:7 *736:7 0.00135607
*RES
1 *897:analog_ctrl[53] *736:7 4.3646 
2 *736:7 *736:11 48.8588 
3 *736:11 *893:vref[0] 49.0308 
*END

*D_NET *737 0.099514
*CONN
*I *893:vref[1] I *D CF_ADC_SAR12_sar_refs
*I *897:analog_ctrl[54] O *D soc_sys
*CAP
1 *893:vref[1] 0.00311282
2 *897:analog_ctrl[54] 0.0160009
3 *737:15 0.022101
4 *737:11 0.0349891
5 *893:vref[1] *893:vref[3] 0
6 *893:vref[1] *893:vref[2] 0.00143725
7 *737:11 *738:9 0.00223516
8 *737:11 *757:19 0.00446727
9 *737:11 *827:21 0.000897897
10 *737:11 *866:9 0.000707908
11 *737:11 *888:21 0.00920671
12 *893:vref[0] *893:vref[1] 3.00472e-05
13 *67:215 *737:15 0.000438533
14 *692:9 *737:11 0.00107773
15 *728:9 *737:11 0.00121365
16 *735:7 *737:11 0.000247259
17 *736:7 *737:11 0.00135073
*RES
1 *897:analog_ctrl[54] *737:11 46.3429 
2 *737:11 *737:15 47.0348 
3 *737:15 *893:vref[1] 10.1273 
*END

*D_NET *738 0.105376
*CONN
*I *893:vref[2] I *D CF_ADC_SAR12_sar_refs
*I *897:analog_ctrl[55] O *D soc_sys
*CAP
1 *893:vref[2] 0.00150904
2 *897:analog_ctrl[55] 0.0162715
3 *738:15 0.0194381
4 *738:9 0.0342006
5 *893:vref[2] *893:vref[3] 0.0014627
6 *738:9 *739:11 0.00102935
7 *738:9 *740:11 0.000302129
8 *738:9 *742:7 0
9 *738:9 *760:17 0.0203004
10 *738:9 *825:21 0.0008248
11 *738:9 *860:9 0.00102246
12 *738:9 *885:9 0.000684882
13 *893:vref[1] *893:vref[2] 0.00143725
14 *67:215 *738:15 0
15 *76:57 *738:15 0
16 *679:9 *738:9 0.00196119
17 *680:9 *738:9 0.00143236
18 *702:9 *738:9 0.000248105
19 *710:9 *738:9 0.00101591
20 *726:9 *738:9 0
21 *737:11 *738:9 0.00223516
*RES
1 *897:analog_ctrl[55] *738:9 49.8861 
2 *738:9 *738:15 46.2529 
3 *738:15 *893:vref[2] 7.5946 
*END

*D_NET *739 0.103063
*CONN
*I *893:vref[3] I *D CF_ADC_SAR12_sar_refs
*I *897:analog_ctrl[56] O *D soc_sys
*CAP
1 *893:vref[3] 0.00338763
2 *897:analog_ctrl[56] 0.0130663
3 *739:13 0.0235099
4 *739:11 0.0331885
5 *893:vref[3] *893:vref[4] 0.00237794
6 *739:11 *740:11 0.000955259
7 *739:11 *759:19 0.00941217
8 *739:11 *761:17 0.000644581
9 *739:11 *762:17 0
10 *739:11 *770:17 0.000669868
11 *739:11 *790:17 0.00950038
12 *739:11 *791:9 0.000581094
13 *739:11 *797:9 0.000604645
14 *739:11 *808:9 0.000649775
15 *893:vref[2] *893:vref[3] 0.0014627
16 *893:vref[1] *893:vref[3] 0
17 *665:9 *739:11 0.000581894
18 *671:9 *739:11 0.000676239
19 *723:9 *739:11 0.000764697
20 *738:9 *739:11 0.00102935
*RES
1 *897:analog_ctrl[56] *739:11 38.8543 
2 *739:11 *739:13 50.8465 
3 *739:13 *893:vref[3] 14.2386 
*END

*D_NET *740 0.100806
*CONN
*I *893:vref[4] I *D CF_ADC_SAR12_sar_refs
*I *897:analog_ctrl[57] O *D soc_sys
*CAP
1 *893:vref[4] 0.00339846
2 *897:analog_ctrl[57] 0.0136105
3 *740:15 0.0239289
4 *740:11 0.034141
5 *740:11 *897:sram_dat_i[11] 0.0098349
6 *740:11 *742:7 0.000684645
7 *740:11 *769:9 0.000977355
8 *740:11 *852:13 0.000714608
9 *740:11 *865:9 0.000767946
10 *740:11 *872:9 0.000686775
11 *740:11 *891:9 0.000665015
12 *893:vref[3] *893:vref[4] 0.00237794
13 *658:21 *740:11 0.00237887
14 *719:9 *740:11 0.00538152
15 *738:9 *740:11 0.000302129
16 *739:11 *740:11 0.000955259
*RES
1 *897:analog_ctrl[57] *740:11 42.2693 
2 *740:11 *740:15 49.8316 
3 *740:15 *893:vref[4] 12.0279 
*END

*D_NET *741 0.116205
*CONN
*I *893:PWR_CTRL_VREF[0] I *D CF_ADC_SAR12_sar_refs
*I *897:analog_ctrl[58] O *D soc_sys
*CAP
1 *893:PWR_CTRL_VREF[0] 0.00406149
2 *897:analog_ctrl[58] 0.00100311
3 *741:25 0.0109563
4 *741:23 0.0080917
5 *741:19 0.00220005
6 *893:PWR_CTRL_VREF[0] *893:PWR_CTRL_VREF[1] 0.0130532
7 *893:PWR_CTRL_VREF[0] *893:EN_RESVDA 0.000839697
8 *741:19 *773:40 0.000154468
9 *741:19 *776:13 0.000370722
10 *741:23 *780:7 0.00313579
11 *741:23 *781:13 0.00313383
12 *741:25 *781:17 0.00393054
13 *741:25 *848:23 0.00451879
14 *741:25 *868:9 0.000814136
15 *893:pd_vcmbuf *893:PWR_CTRL_VREF[0] 0.00116051
16 *893:PD_BUF_VREF *893:PWR_CTRL_VREF[0] 0.0140527
17 *67:247 *741:19 0.000443425
18 *118:67 *741:19 0.000605242
19 *675:9 *741:25 0.0287228
20 *676:9 *741:19 1.83975e-05
21 *691:9 *741:25 0.0107412
22 *694:15 *893:PWR_CTRL_VREF[0] 0
23 *699:21 *741:19 0.00257688
24 *700:11 *741:19 0.00137138
25 *712:9 *741:19 1.7635e-05
26 *718:11 *741:25 0.000230873
*RES
1 *897:analog_ctrl[58] *741:19 46.1164 
2 *741:19 *741:23 5.54893 
3 *741:23 *741:25 341.295 
4 *741:25 *893:PWR_CTRL_VREF[0] 32.3819 
*END

*D_NET *742 0.101751
*CONN
*I *893:PWR_CTRL_VREF[1] I *D CF_ADC_SAR12_sar_refs
*I *897:analog_ctrl[59] O *D soc_sys
*CAP
1 *893:PWR_CTRL_VREF[1] 0.00356095
2 *897:analog_ctrl[59] 0.00436902
3 *742:9 0.0193969
4 *742:7 0.020205
5 *893:PWR_CTRL_VREF[1] *893:EN_RESVDA 0.00488527
6 *742:7 *744:7 0.00294443
7 *742:7 *806:15 0
8 *742:9 *793:9 0.0101284
9 *742:9 *804:9 6.39848e-05
10 *742:9 *806:15 0.0024302
11 *742:9 *828:17 0
12 *742:9 *831:13 0
13 *742:9 *836:17 0.0126514
14 *742:9 *875:11 0
15 *893:PWR_CTRL_VREF[0] *893:PWR_CTRL_VREF[1] 0.0130532
16 *893:pd_vcmbuf *893:PWR_CTRL_VREF[1] 2.67844e-05
17 *893:PD_BUF_VREF *893:PWR_CTRL_VREF[1] 9.45083e-05
18 *732:9 *742:9 0.00725609
19 *738:9 *742:7 0
20 *740:11 *742:7 0.000684645
*RES
1 *897:analog_ctrl[59] *742:7 11.3857 
2 *742:7 *742:9 375.975 
3 *742:9 *893:PWR_CTRL_VREF[1] 22.8644 
*END

*D_NET *743 0.282051
*CONN
*I *895:e_na_boost I *D CF_BUF_HIZ
*I *897:analog_ctrl[5] O *D soc_sys
*CAP
1 *895:e_na_boost 0.00670466
2 *897:analog_ctrl[5] 0.00028747
3 *743:13 0.0301325
4 *743:11 0.0234279
5 *743:9 0.00617908
6 *743:7 0.00646655
7 *895:e_na_boost *895:clk1_boostr 0.0207296
8 *743:7 *754:7 0.000373791
9 *743:9 *754:9 0.0265601
10 *743:9 *819:9 0
11 *895:vinn_n *895:e_na_boost 3.96411e-05
12 *895:e_n_boost *895:e_na_boost 6.29859e-05
13 *72:13 *743:13 0
14 *73:21 *743:13 0.086788
15 *75:30 *895:e_na_boost 0.00899885
16 *103:39 *743:9 0.00157436
17 *698:17 *743:13 0.0390534
18 *716:9 *743:9 4.9021e-05
19 *717:9 *743:9 0.0238909
20 *727:15 *743:13 0.000339353
21 *732:7 *743:7 0.000393285
*RES
1 *897:analog_ctrl[5] *743:7 1.6552 
2 *743:7 *743:9 305.595 
3 *743:9 *743:11 0.5 
4 *743:11 *743:13 129.011 
5 *743:13 *895:e_na_boost 45.5616 
*END

*D_NET *744 0.0918942
*CONN
*I *893:muxsarref[0] I *D CF_ADC_SAR12_sar_refs
*I *897:analog_ctrl[60] O *D soc_sys
*CAP
1 *893:muxsarref[0] 0.00595008
2 *897:analog_ctrl[60] 0.00323444
3 *744:9 0.0120309
4 *744:7 0.00931524
5 *893:muxsarref[0] *893:muxsarref[2] 0.000333461
6 *893:muxsarref[0] *893:muxsarref[1] 0.0143402
7 *744:7 *745:7 0.000696021
8 *744:7 *746:7 0.000741526
9 *744:9 *818:9 0.0019707
10 *744:9 *871:9 0.011704
11 *677:9 *744:9 0.0209455
12 *682:9 *744:9 0.00768776
13 *742:7 *744:7 0.00294443
*RES
1 *897:analog_ctrl[60] *744:7 9.75427 
2 *744:7 *744:9 294.375 
3 *744:9 *893:muxsarref[0] 26.5042 
*END

*D_NET *745 0.0910896
*CONN
*I *893:muxsarref[1] I *D CF_ADC_SAR12_sar_refs
*I *897:analog_ctrl[61] O *D soc_sys
*CAP
1 *893:muxsarref[1] 0.00912257
2 *897:analog_ctrl[61] 0.000570818
3 *745:9 0.0155941
4 *745:7 0.0070423
5 *893:muxsarref[1] *893:muxsarref[2] 2.2142e-05
6 *745:7 *746:7 0.000745515
7 *745:9 *761:15 0.000253564
8 *745:9 *771:11 0.00137432
9 *745:9 *775:9 0.000500776
10 *745:9 *779:9 0.00706062
11 *745:9 *782:9 0.00113559
12 *745:9 *826:21 0.00976792
13 *893:muxsarref[0] *893:muxsarref[1] 0.0143402
14 *670:9 *745:9 0
15 *733:9 *745:9 0.000156509
16 *734:9 *745:9 0.0227067
17 *744:7 *745:7 0.000696021
*RES
1 *897:analog_ctrl[61] *745:7 2.64573 
2 *745:7 *745:9 292.845 
3 *745:9 *893:muxsarref[1] 33.7177 
*END

*D_NET *746 0.0874022
*CONN
*I *893:muxsarref[2] I *D CF_ADC_SAR12_sar_refs
*I *897:analog_ctrl[62] O *D soc_sys
*CAP
1 *893:muxsarref[2] 0.00961273
2 *897:analog_ctrl[62] 0.0027506
3 *746:9 0.0154161
4 *746:7 0.00855396
5 *746:7 *747:7 0.00134802
6 *746:9 *781:13 0
7 *746:9 *890:9 0.00241986
8 *893:muxsarref[1] *893:muxsarref[2] 2.2142e-05
9 *893:muxsarref[0] *893:muxsarref[2] 0.000333461
10 *674:9 *746:9 0.02132
11 *678:9 *746:9 0.021053
12 *707:9 *746:9 0
13 *729:9 *746:9 0.00308523
14 *744:7 *746:7 0.000741526
15 *745:7 *746:7 0.000745515
*RES
1 *897:analog_ctrl[62] *746:7 7.948 
2 *746:7 *746:9 288.765 
3 *746:9 *893:muxsarref[2] 32.5497 
*END

*D_NET *747 0.0922973
*CONN
*I *893:EN_RESVDA I *D CF_ADC_SAR12_sar_refs
*I *897:analog_ctrl[63] O *D soc_sys
*CAP
1 *893:EN_RESVDA 0.00942076
2 *897:analog_ctrl[63] 0.00127757
3 *747:9 0.0221566
4 *747:7 0.0140134
5 *747:7 *748:7 0.000455541
6 *747:9 *859:9 0.00592553
7 *747:9 *869:9 0.00262093
8 *747:9 *881:9 0.000382065
9 *893:PWR_CTRL_VREF[1] *893:EN_RESVDA 0.00488527
10 *893:PWR_CTRL_VREF[0] *893:EN_RESVDA 0.000839697
11 *893:pd_vcmbuf *893:EN_RESVDA 3.58969e-05
12 *893:PD_BUF_VREF *893:EN_RESVDA 0.000184977
13 *649:13 *747:9 0
14 *650:17 *747:9 0
15 *672:9 *747:9 0.000861656
16 *681:9 *747:9 0.0260616
17 *694:15 *893:EN_RESVDA 0
18 *711:9 *747:9 0
19 *736:11 *747:9 0.00182792
20 *746:7 *747:7 0.00134802
*RES
1 *897:analog_ctrl[63] *747:7 4.39373 
2 *747:7 *747:9 370.365 
3 *747:9 *893:EN_RESVDA 32.8991 
*END

*D_NET *748 0.266129
*CONN
*I *894:trimTC[0] I *D CF_BGR
*I *897:analog_ctrl[64] O *D soc_sys
*CAP
1 *894:trimTC[0] 0.000157805
2 *897:analog_ctrl[64] 0.000454496
3 *748:17 0.0263765
4 *748:15 0.0262187
5 *748:13 0.0165767
6 *748:11 0.0165767
7 *748:9 0.00742815
8 *748:7 0.00788264
9 *894:trimTC[0] *894:trimTC[2] 0
10 *894:trimTC[0] *894:trimTC[1] 0.000175316
11 *748:7 *749:7 0.00034175
12 *748:7 *753:7 0
13 *748:9 *897:sram_dat_i[21] 5.59194e-05
14 *748:9 *897:sram_dat_i[24] 3.28052e-05
15 *748:9 *763:9 0
16 *748:9 *805:11 5.10492e-05
17 *748:9 *819:9 0.00805969
18 *748:13 *761:21 0.0606948
19 *748:17 *894:trimTC[3] 0
20 *748:17 *894:trimTC[2] 0
21 *748:17 *894:trimTC[1] 0.00037017
22 *24:13 *894:trimTC[0] 4.24839e-05
23 *44:21 *748:17 0.0576968
24 *67:231 *748:9 0.00109317
25 *103:39 *748:9 0.00151424
26 *653:14 *748:13 0.0120133
27 *671:23 *748:9 0.000132825
28 *700:15 *748:13 0
29 *717:9 *748:9 0.0002151
30 *727:9 *748:9 0.0215123
31 *734:15 *748:13 0
32 *747:7 *748:7 0.000455541
*RES
1 *897:analog_ctrl[64] *748:7 1.88827 
2 *748:7 *748:9 253.065 
3 *748:9 *748:11 0.5 
4 *748:11 *748:13 90.2057 
5 *748:13 *748:15 0.5 
6 *748:15 *748:17 107.36 
7 *748:17 *894:trimTC[0] 2.39803 
*END

*D_NET *749 0.273515
*CONN
*I *894:trimTC[1] I *D CF_BGR
*I *897:analog_ctrl[65] O *D soc_sys
*CAP
1 *894:trimTC[1] 0.00892848
2 *897:analog_ctrl[65] 0.000314859
3 *749:13 0.0306282
4 *749:11 0.0216998
5 *749:9 0.0201129
6 *749:7 0.0204278
7 *749:7 *750:7 0.000319001
8 *749:7 *753:7 0
9 *749:9 *750:9 0.0579142
10 *749:9 *754:9 0.0228268
11 *749:13 *750:13 0
12 *749:13 *782:17 0.0604068
13 *894:trimTC[0] *894:trimTC[1] 0.000175316
14 *24:13 *894:trimTC[1] 0.000153464
15 *44:13 *894:trimTC[1] 0
16 *44:21 *894:trimTC[1] 0.0189451
17 *103:39 *749:9 0.00995006
18 *712:9 *749:9 0
19 *748:7 *749:7 0.00034175
20 *748:17 *894:trimTC[1] 0.00037017
*RES
1 *897:analog_ctrl[65] *749:7 1.53867 
2 *749:7 *749:9 674.325 
3 *749:9 *749:11 0.5 
4 *749:11 *749:13 89.623 
5 *749:13 *894:trimTC[1] 39.8486 
*END

*D_NET *750 0.250383
*CONN
*I *894:trimTC[2] I *D CF_BGR
*I *897:analog_ctrl[66] O *D soc_sys
*CAP
1 *894:trimTC[2] 0.00818778
2 *897:analog_ctrl[66] 0.000309514
3 *750:13 0.0438855
4 *750:11 0.0356978
5 *750:9 0.0127434
6 *750:7 0.0130529
7 *894:trimTC[2] *894:trimTC[4] 0.00135248
8 *894:trimTC[2] *894:trimTC[3] 0.0183988
9 *750:7 *751:7 0.000299904
10 *750:9 *751:9 0.0582217
11 *750:13 *782:17 0
12 *894:trimTC[0] *894:trimTC[2] 0
13 *712:9 *750:9 0
14 *748:17 *894:trimTC[2] 0
15 *749:7 *750:7 0.000319001
16 *749:9 *750:9 0.0579142
17 *749:13 *750:13 0
*RES
1 *897:analog_ctrl[66] *750:7 1.4804 
2 *750:7 *750:9 677.895 
3 *750:9 *750:11 0.5 
4 *750:11 *750:13 90.497 
5 *750:13 *894:trimTC[2] 37.8948 
*END

*D_NET *751 0.248358
*CONN
*I *894:trimTC[3] I *D CF_BGR
*I *897:analog_ctrl[67] O *D soc_sys
*CAP
1 *894:trimTC[3] 0.00820962
2 *897:analog_ctrl[67] 0.000289087
3 *751:13 0.0427184
4 *751:11 0.0345088
5 *751:9 0.0130193
6 *751:7 0.0133084
7 *894:trimTC[3] *894:trimTC[4] 0
8 *751:7 *752:7 0.000280808
9 *751:7 *753:7 6.60178e-06
10 *751:9 *752:9 0.0590134
11 *894:trimTC[2] *894:trimTC[3] 0.0183988
12 *24:13 *894:trimTC[3] 8.29347e-05
13 *712:9 *751:9 0
14 *748:17 *894:trimTC[3] 0
15 *750:7 *751:7 0.000299904
16 *750:9 *751:9 0.0582217
*RES
1 *897:analog_ctrl[67] *751:7 1.42213 
2 *751:7 *751:9 687.075 
3 *751:9 *751:11 0.5 
4 *751:11 *751:13 90.3222 
5 *751:13 *894:trimTC[3] 37.1047 
*END

*D_NET *752 0.208129
*CONN
*I *894:trimTC[4] I *D CF_BGR
*I *897:analog_ctrl[68] O *D soc_sys
*CAP
1 *894:trimTC[4] 0.00729487
2 *897:analog_ctrl[68] 0.000275687
3 *752:13 0.0419889
4 *752:11 0.0346941
5 *752:9 0.0275503
6 *752:7 0.0278259
7 *752:7 *753:7 0.000266247
8 *894:trimTC[3] *894:trimTC[4] 0
9 *894:trimTC[2] *894:trimTC[4] 0.00135248
10 *24:13 *894:trimTC[4] 2.20023e-05
11 *104:26 *752:9 0
12 *712:9 *752:9 0.00756468
13 *751:7 *752:7 0.000280808
14 *751:9 *752:9 0.0590134
*RES
1 *897:analog_ctrl[68] *752:7 1.36387 
2 *752:7 *752:9 768.675 
3 *752:9 *752:11 0.5 
4 *752:11 *752:13 90.8466 
5 *752:13 *894:trimTC[4] 23.1038 
*END

*D_NET *753 0.276295
*CONN
*I *894:trimTC[5] I *D CF_BGR
*I *897:analog_ctrl[69] O *D soc_sys
*CAP
1 *894:trimTC[5] 0.00041018
2 *897:analog_ctrl[69] 0.00241665
3 *753:13 0.0172632
4 *753:11 0.016853
5 *753:9 0.0268266
6 *753:7 0.0292432
7 *894:trimTC[5] *894:trimTC[6] 0.00049177
8 *894:trimTC[5] *758:29 8.85359e-05
9 *894:trimTC[5] *762:21 3.81927e-05
10 *753:7 *755:7 0.00193001
11 *753:9 *757:19 3.82728e-05
12 *753:9 *758:25 0.0734471
13 *753:9 *772:17 0.0125679
14 *753:9 *850:13 0.00123109
15 *753:9 *858:9 0.00505772
16 *753:13 *755:13 0.0345762
17 *753:13 *756:13 0.0124814
18 *753:13 *760:37 0.0299544
19 *657:21 *753:9 0.00330842
20 *675:9 *753:9 0
21 *686:9 *753:9 0.00779791
22 *748:7 *753:7 0
23 *749:7 *753:7 0
24 *751:7 *753:7 6.60178e-06
25 *752:7 *753:7 0.000266247
*RES
1 *897:analog_ctrl[69] *753:7 6.60787 
2 *753:7 *753:9 892.095 
3 *753:9 *753:11 0.5 
4 *753:11 *753:13 96.0906 
5 *753:13 *894:trimTC[5] 3.62002 
*END

*D_NET *754 0.257491
*CONN
*I *895:clk1_boostr I *D CF_BUF_HIZ
*I *897:analog_ctrl[6] O *D soc_sys
*CAP
1 *895:clk1_boostr 0.00927372
2 *897:analog_ctrl[6] 0.000360737
3 *754:13 0.0381241
4 *754:11 0.0288504
5 *754:9 0.00723351
6 *754:7 0.00759425
7 *754:7 *776:11 3.73442e-05
8 *754:9 *789:9 0
9 *895:clk2_boost *895:clk1_boostr 7.22966e-05
10 *895:vinp_n *895:clk1_boostr 0.000122657
11 *895:vinn_na *895:clk1_boostr 0
12 *895:e_na_boost *895:clk1_boostr 0.0207296
13 *895:e_n_boost *895:clk1_boostr 9.58907e-05
14 *70:18 *754:13 0.0263735
15 *103:39 *754:9 0.00194945
16 *105:29 *754:13 0.00242914
17 *528:15 *754:13 0.0308756
18 *676:7 *754:7 0
19 *676:9 *754:9 0
20 *687:7 *754:7 0
21 *712:9 *754:9 0
22 *717:9 *754:9 0.000724508
23 *722:13 *754:13 0.0328646
24 *732:29 *895:clk1_boostr 1.8849e-05
25 *743:7 *754:7 0.000373791
26 *743:9 *754:9 0.0265601
27 *749:9 *754:9 0.0228268
*RES
1 *897:analog_ctrl[6] *754:7 1.59693 
2 *754:7 *754:9 321.915 
3 *754:9 *754:11 0.5 
4 *754:11 *754:13 128.836 
5 *754:13 *895:clk1_boostr 46.3288 
*END

*D_NET *755 0.323973
*CONN
*I *894:trimTC[6] I *D CF_BGR
*I *897:analog_ctrl[70] O *D soc_sys
*CAP
1 *894:trimTC[6] 0.00051891
2 *897:analog_ctrl[70] 0.00264602
3 *755:13 0.0153504
4 *755:11 0.0148315
5 *755:9 0.0382893
6 *755:7 0.0409353
7 *894:trimTC[6] *758:29 8.67614e-05
8 *894:trimTC[6] *762:21 0.00032184
9 *755:7 *756:7 0.00245658
10 *755:9 *783:17 0.0249047
11 *755:9 *844:17 0.000862469
12 *755:9 *861:19 0.00507437
13 *755:13 *756:13 0.000194238
14 *755:13 *760:37 2.67629e-05
15 *755:13 *781:21 0.0627135
16 *755:13 *783:21 0.000777435
17 *894:trimTC[5] *894:trimTC[6] 0.00049177
18 *40:13 *755:9 0
19 *710:9 *755:9 0.0438462
20 *720:9 *755:9 0.00112145
21 *726:9 *755:9 0
22 *729:9 *755:9 0.020143
23 *730:9 *755:9 0.011874
24 *753:7 *755:7 0.00193001
25 *753:13 *755:13 0.0345762
*RES
1 *897:analog_ctrl[70] *755:7 8.32673 
2 *755:7 *755:9 150.341 
3 *755:9 *755:11 0.5 
4 *755:11 *755:13 97.926 
5 *755:13 *894:trimTC[6] 2.9877 
*END

*D_NET *756 0.323264
*CONN
*I *894:trimCurr[0] I *D CF_BGR
*I *897:analog_ctrl[71] O *D soc_sys
*CAP
1 *894:trimCurr[0] 0.000142971
2 *897:analog_ctrl[71] 0.00370771
3 *756:13 0.0302921
4 *756:11 0.0301492
5 *756:9 0.0461222
6 *756:7 0.0498299
7 *894:trimCurr[0] *894:trimCurr[4] 0.000148778
8 *894:trimCurr[0] *894:trimCurr[3] 0.000228818
9 *756:7 *757:19 0.00195753
10 *756:7 *760:17 0
11 *756:9 *780:9 0.0797497
12 *756:9 *800:9 0.00118338
13 *756:9 *814:9 0.00140266
14 *756:13 *894:CurrAbsTrim[0] 0
15 *756:13 *894:pd 1.37499e-05
16 *756:13 *758:29 0
17 *756:13 *759:37 0.0463169
18 *756:13 *760:37 0.00157555
19 *756:13 *762:21 0.0141257
20 *725:9 *756:9 0.00118516
21 *753:13 *756:13 0.0124814
22 *755:7 *756:7 0.00245658
23 *755:13 *756:13 0.000194238
*RES
1 *897:analog_ctrl[71] *756:7 10.3078 
2 *756:7 *756:9 150.599 
3 *756:9 *756:11 0.5 
4 *756:11 *756:13 129.04 
5 *756:13 *894:trimCurr[0] 1.08837 
*END

*D_NET *757 0.318311
*CONN
*I *894:trimCurr[1] I *D CF_BGR
*I *897:analog_ctrl[72] O *D soc_sys
*CAP
1 *894:trimCurr[1] 0.000395728
2 *897:analog_ctrl[72] 0.0138656
3 *757:33 0.0270024
4 *757:31 0.0266066
5 *757:29 0.0227467
6 *757:27 0.0228792
7 *757:21 0.00250613
8 *757:19 0.0162392
9 *894:trimCurr[1] *894:CurrAbsTrim[5] 0
10 *894:trimCurr[1] *894:trimCurr[5] 0.000123095
11 *894:trimCurr[1] *894:CurrAbsTrim[4] 0
12 *894:trimCurr[1] *894:mux2sel 0.000231101
13 *894:trimCurr[1] *894:mux1sel[0] 0.000913466
14 *894:trimCurr[1] *894:inl_ctrl[1] 0.0014158
15 *757:19 *758:23 0.00391329
16 *757:19 *759:19 0.000350424
17 *757:19 *760:17 0
18 *757:19 *772:17 0.0153402
19 *757:19 *850:13 0.000532018
20 *757:19 *858:9 0.000571693
21 *757:19 *887:9 0.000382941
22 *757:19 *888:21 0.00211601
23 *757:21 *759:21 0.0102631
24 *757:21 *760:21 0.0124509
25 *757:27 *759:31 0
26 *757:27 *760:31 0.000100792
27 *757:29 *759:31 0.023574
28 *757:29 *760:31 0.000127981
29 *757:29 *771:15 0.0121533
30 *757:33 *894:mux1sel[0] 1.51394e-05
31 *757:33 *894:pd_ibg 0
32 *757:33 *770:25 0.058579
33 *73:21 *757:29 0.0158119
34 *78:21 *757:29 0
35 *78:29 *757:21 0
36 *78:29 *757:29 0.000907107
37 *651:31 *757:19 0
38 *657:21 *757:19 0.00203924
39 *665:13 *757:21 0.00201901
40 *665:13 *757:29 0.00984847
41 *686:9 *757:19 2.11552e-05
42 *696:9 *757:19 0.00228879
43 *701:15 *757:29 3.99991e-05
44 *704:9 *757:19 0.00155813
45 *714:27 *757:19 5.23147e-05
46 *714:27 *757:29 0.000270582
47 *715:9 *757:19 0.00145
48 *718:11 *757:19 0
49 *728:9 *757:19 0.000145236
50 *737:11 *757:19 0.00446727
51 *753:9 *757:19 3.82728e-05
52 *756:7 *757:19 0.00195753
*RES
1 *897:analog_ctrl[72] *757:19 49.509 
2 *757:19 *757:21 114.3 
3 *757:21 *757:27 4.7725 
4 *757:27 *757:29 103.549 
5 *757:29 *757:31 0.5 
6 *757:31 *757:33 108.997 
7 *757:33 *894:trimCurr[1] 5.59272 
*END

*D_NET *758 0.342251
*CONN
*I *894:trimCurr[2] I *D CF_BGR
*I *897:analog_ctrl[73] O *D soc_sys
*CAP
1 *894:trimCurr[2] 0.000110517
2 *897:analog_ctrl[73] 0.0045664
3 *758:29 0.0183398
4 *758:27 0.0182293
5 *758:25 0.0171692
6 *758:23 0.0217356
7 *894:trimCurr[2] *894:CurrAbsTrim[0] 0
8 *894:trimCurr[2] *894:CurrAbsTrim[1] 0
9 *758:23 *759:19 7.96605e-05
10 *758:23 *778:7 1.8062e-05
11 *758:23 *779:7 0.00125972
12 *758:23 *780:7 0.0037892
13 *758:23 *781:13 0.000109407
14 *758:23 *855:7 0.000107452
15 *758:23 *888:21 0.0038355
16 *758:25 *772:17 0.00920058
17 *758:29 *894:finetune 9.45508e-06
18 *758:29 *894:CurrAbsTrim[0] 0.00157929
19 *758:29 *762:21 0.0253858
20 *758:29 *763:13 6.68625e-06
21 *758:29 *764:13 0.081595
22 *758:29 *778:13 0.0017278
23 *894:trimTC[6] *758:29 8.67614e-05
24 *894:trimTC[5] *758:29 8.85359e-05
25 *40:19 *758:23 0.00129992
26 *118:67 *758:23 0.000482856
27 *657:21 *758:25 0.0530403
28 *699:47 *758:23 0.000568139
29 *704:9 *758:23 0.000221881
30 *715:9 *758:23 0.000248105
31 *715:9 *758:25 0
32 *753:9 *758:25 0.0734471
33 *756:13 *758:29 0
34 *757:19 *758:23 0.00391329
*RES
1 *897:analog_ctrl[73] *758:23 19.5316 
2 *758:23 *758:25 832.425 
3 *758:25 *758:27 0.5 
4 *758:27 *758:29 125.544 
5 *758:29 *894:trimCurr[2] 2.39375 
*END

*D_NET *759 0.328103
*CONN
*I *894:trimCurr[3] I *D CF_BGR
*I *897:analog_ctrl[74] O *D soc_sys
*CAP
1 *894:trimCurr[3] 0.000301685
2 *897:analog_ctrl[74] 0.0103378
3 *759:37 0.00868777
4 *759:35 0.00838609
5 *759:33 0.0418239
6 *759:31 0.0456995
7 *759:21 0.00757848
8 *759:19 0.0140407
9 *894:trimCurr[3] *894:CurrAbsTrim[0] 0.000141811
10 *759:19 *760:17 0.000912247
11 *759:19 *762:17 0
12 *759:31 *760:31 0.0206929
13 *759:31 *771:15 0.00458927
14 *759:37 *760:37 0.0463195
15 *892:dft_outc[1] *759:33 0
16 *894:trimCurr[0] *894:trimCurr[3] 0.000228818
17 *78:29 *759:21 0
18 *665:9 *759:19 0.0204537
19 *665:13 *759:19 4.12303e-05
20 *665:13 *759:31 0.000888742
21 *670:9 *759:19 1.7635e-05
22 *671:23 *759:21 0.00185061
23 *687:9 *759:19 0.00176454
24 *708:9 *759:19 0.00207942
25 *711:19 *759:19 3.14528e-05
26 *714:27 *759:19 0.000114785
27 *722:17 *759:33 0
28 *723:9 *759:19 0.00112447
29 *727:17 *759:33 0
30 *739:11 *759:19 0.00941217
31 *756:13 *759:37 0.0463169
32 *757:19 *759:19 0.000350424
33 *757:21 *759:21 0.0102631
34 *757:27 *759:31 0
35 *757:29 *759:31 0.023574
36 *758:23 *759:19 7.96605e-05
*RES
1 *897:analog_ctrl[74] *759:19 45.4996 
2 *759:19 *759:21 96.015 
3 *759:21 *759:31 39.4764 
4 *759:31 *759:33 110.892 
5 *759:33 *759:35 0.5 
6 *759:35 *759:37 70.6572 
7 *759:37 *894:trimCurr[3] 2.35437 
*END

*D_NET *760 0.329617
*CONN
*I *894:trimCurr[4] I *D CF_BGR
*I *897:analog_ctrl[75] O *D soc_sys
*CAP
1 *894:trimCurr[4] 0.000186181
2 *897:analog_ctrl[75] 0.00965459
3 *760:37 0.0108158
4 *760:35 0.0106296
5 *760:33 0.0424486
6 *760:31 0.0463579
7 *760:21 0.00920466
8 *760:19 0.00529543
9 *760:17 0.00965459
10 *894:trimCurr[4] *894:CurrAbsTrim[0] 1.96741e-05
11 *894:trimCurr[4] *894:inl_ctrl[0] 0
12 *760:17 *761:15 0.000706791
13 *760:17 *762:15 2.05543e-05
14 *760:31 *771:15 0.00448953
15 *760:33 *784:23 0
16 *760:37 *894:inl_ctrl[0] 0.00447351
17 *760:37 *781:21 0.00202739
18 *894:trimCurr[0] *894:trimCurr[4] 0.000148778
19 *20:25 *760:33 0.00226851
20 *78:29 *760:21 0
21 *665:13 *760:21 0.00370121
22 *665:13 *760:31 0.00104693
23 *671:23 *760:31 0.0106416
24 *694:9 *760:17 1.79483e-05
25 *701:15 *760:31 7.98204e-05
26 *702:9 *760:17 0.000676224
27 *702:13 *760:17 0.00166871
28 *702:23 *760:31 0.000155214
29 *710:9 *760:17 0.020745
30 *714:27 *760:17 2.08692e-05
31 *726:9 *760:17 0
32 *738:9 *760:17 0.0203004
33 *753:13 *760:37 0.0299544
34 *755:13 *760:37 2.67629e-05
35 *756:7 *760:17 0
36 *756:13 *760:37 0.00157555
37 *757:19 *760:17 0
38 *757:21 *760:21 0.0124509
39 *757:27 *760:31 0.000100792
40 *757:29 *760:31 0.000127981
41 *759:19 *760:17 0.000912247
42 *759:31 *760:31 0.0206929
43 *759:37 *760:37 0.0463195
*RES
1 *897:analog_ctrl[75] *760:17 48.4852 
2 *760:17 *760:19 2 
3 *760:19 *760:21 126.03 
4 *760:21 *760:31 35.6308 
5 *760:31 *760:33 110.892 
6 *760:33 *760:35 0.5 
7 *760:35 *760:37 75.202 
8 *760:37 *894:trimCurr[4] 1.1897 
*END

*D_NET *761 0.326043
*CONN
*I *894:trimCurr[5] I *D CF_BGR
*I *897:analog_ctrl[76] O *D soc_sys
*CAP
1 *894:trimCurr[5] 0.00848507
2 *897:analog_ctrl[76] 0.00561126
3 *761:25 0.043257
4 *761:23 0.0347719
5 *761:21 0.0131796
6 *761:19 0.0131796
7 *761:17 0.00593184
8 *761:15 0.0115431
9 *894:trimCurr[5] *894:CurrAbsTrim[4] 1.86715e-05
10 *894:trimCurr[5] *894:mux2sel 2.38374e-05
11 *894:trimCurr[5] *894:inl_ctrl[1] 6.39152e-05
12 *894:trimCurr[5] *894:inl_ctrl[4] 0.000580302
13 *761:15 *897:sram_dat_i[12] 0.000660075
14 *761:15 *762:15 0.00587243
15 *761:15 *771:11 0.00748948
16 *761:15 *826:21 0.000153582
17 *761:15 *862:7 0.00065729
18 *761:17 *770:17 0.00366966
19 *761:17 *795:9 0.000668835
20 *761:17 *797:9 0.00119414
21 *761:17 *808:9 0.00144567
22 *761:17 *813:11 0.000124743
23 *761:21 *769:13 0.0704677
24 *761:21 *770:21 9.40268e-05
25 *761:25 *769:17 0.033867
26 *894:trimCurr[1] *894:trimCurr[5] 0.000123095
27 *103:39 *761:15 0
28 *653:14 *761:21 0
29 *665:9 *761:15 0.000363363
30 *673:17 *761:17 0
31 *733:9 *761:15 0.000129951
32 *734:9 *761:15 0.000116216
33 *734:15 *761:21 0
34 *739:11 *761:17 0.000644581
35 *745:9 *761:15 0.000253564
36 *748:13 *761:21 0.0606948
37 *760:17 *761:15 0.000706791
*RES
1 *897:analog_ctrl[76] *761:15 20.6469 
2 *761:15 *761:17 145.965 
3 *761:17 *761:19 0.5 
4 *761:19 *761:21 105.005 
5 *761:21 *761:23 0.5 
6 *761:23 *761:25 108.135 
7 *761:25 *894:trimCurr[5] 6.0237 
*END

*D_NET *762 0.307509
*CONN
*I *894:CurrAbsTrim[0] I *D CF_BGR
*I *897:analog_ctrl[77] O *D soc_sys
*CAP
1 *894:CurrAbsTrim[0] 0.00127288
2 *897:analog_ctrl[77] 0.00344036
3 *762:21 0.029895
4 *762:19 0.0286221
5 *762:17 0.0431709
6 *762:15 0.0466113
7 *894:CurrAbsTrim[0] *894:pd 4.15236e-05
8 *762:15 *763:7 0.000563087
9 *762:15 *764:7 2.64282e-05
10 *762:15 *767:7 0
11 *762:15 *772:11 0.000153582
12 *762:15 *779:9 0.000137349
13 *762:15 *855:7 0.000813441
14 *762:15 *870:11 0.000800558
15 *762:17 *790:17 0.000286602
16 *762:21 *894:finetune 3.25777e-05
17 *894:trimCurr[4] *894:CurrAbsTrim[0] 1.96741e-05
18 *894:trimCurr[3] *894:CurrAbsTrim[0] 0.000141811
19 *894:trimCurr[2] *894:CurrAbsTrim[0] 0
20 *894:trimTC[6] *762:21 0.00032184
21 *894:trimTC[5] *762:21 3.81927e-05
22 *40:21 *762:15 0.000238779
23 *650:17 *762:17 0.010929
24 *656:25 *762:17 0.00967869
25 *665:9 *762:15 0.00200163
26 *672:9 *762:17 0.0544028
27 *673:17 *762:17 0.0268848
28 *739:11 *762:17 0
29 *756:13 *894:CurrAbsTrim[0] 0
30 *756:13 *762:21 0.0141257
31 *758:29 *894:CurrAbsTrim[0] 0.00157929
32 *758:29 *762:21 0.0253858
33 *759:19 *762:17 0
34 *760:17 *762:15 2.05543e-05
35 *761:15 *762:15 0.00587243
*RES
1 *897:analog_ctrl[77] *762:15 14.8241 
2 *762:15 *762:17 140.263 
3 *762:17 *762:19 0.5 
4 *762:19 *762:21 118.96 
5 *762:21 *894:CurrAbsTrim[0] 5.7498 
*END

*D_NET *763 0.349731
*CONN
*I *894:CurrAbsTrim[1] I *D CF_BGR
*I *897:analog_ctrl[78] O *D soc_sys
*CAP
1 *894:CurrAbsTrim[1] 0.000175804
2 *897:analog_ctrl[78] 0.00054264
3 *763:13 0.0118901
4 *763:11 0.0117143
5 *763:9 0.0320048
6 *763:7 0.0325475
7 *894:CurrAbsTrim[1] *894:CurrAbsTrim[2] 0.000188783
8 *894:CurrAbsTrim[1] *894:CurrAbsTrim[3] 0.000104636
9 *763:7 *764:7 0.000563087
10 *763:9 *897:sram_dat_i[21] 5.24319e-05
11 *763:9 *897:sram_dat_i[24] 6.11873e-05
12 *763:9 *764:9 4.9021e-05
13 *763:9 *766:9 0.0788033
14 *763:9 *775:9 0.0177937
15 *763:9 *819:9 0
16 *763:13 *764:13 0.000151549
17 *763:13 *766:13 0.081492
18 *763:13 *778:13 1.35034e-05
19 *763:13 *780:13 0.0810127
20 *894:trimCurr[2] *894:CurrAbsTrim[1] 0
21 *67:231 *763:9 0
22 *67:249 *763:9 0
23 *673:11 *763:9 0
24 *717:9 *763:9 0
25 *733:9 *763:9 0
26 *748:9 *763:9 0
27 *758:29 *763:13 6.68625e-06
28 *762:15 *763:7 0.000563087
*RES
1 *897:analog_ctrl[78] *763:7 2.23787 
2 *763:7 *763:9 891.585 
3 *763:9 *763:11 0.5 
4 *763:11 *763:13 120.592 
5 *763:13 *894:CurrAbsTrim[1] 4.93625 
*END

*D_NET *764 0.375442
*CONN
*I *894:CurrAbsTrim[2] I *D CF_BGR
*I *897:analog_ctrl[79] O *D soc_sys
*CAP
1 *894:CurrAbsTrim[2] 4.90529e-05
2 *897:analog_ctrl[79] 0.000563949
3 *764:13 0.0117613
4 *764:11 0.0117123
5 *764:9 0.0174424
6 *764:7 0.0180064
7 *894:CurrAbsTrim[2] *894:CurrAbsTrim[3] 0.000185134
8 *764:7 *766:7 0.000582694
9 *764:7 *767:7 1.32141e-05
10 *764:9 *766:9 0.0786284
11 *764:9 *767:9 0.061796
12 *764:9 *775:9 0.010929
13 *764:13 *778:13 0.0811224
14 *894:CurrAbsTrim[1] *894:CurrAbsTrim[2] 0.000188783
15 *733:9 *764:9 7.5553e-05
16 *758:29 *764:13 0.081595
17 *762:15 *764:7 2.64282e-05
18 *763:7 *764:7 0.000563087
19 *763:9 *764:9 4.9021e-05
20 *763:13 *764:13 0.000151549
*RES
1 *897:analog_ctrl[79] *764:7 2.3544 
2 *764:7 *764:9 888.525 
3 *764:9 *764:11 0.5 
4 *764:11 *764:13 120.65 
5 *764:13 *894:CurrAbsTrim[2] 2.82875 
*END

*D_NET *766 0.335741
*CONN
*I *894:CurrAbsTrim[3] I *D CF_BGR
*I *897:analog_ctrl[80] O *D soc_sys
*CAP
1 *894:CurrAbsTrim[3] 0.000203072
2 *897:analog_ctrl[80] 0.000562752
3 *766:13 0.0286065
4 *766:11 0.0284034
5 *766:9 0.0136645
6 *766:7 0.0142273
7 *766:7 *767:7 0.000579458
8 *766:9 *775:9 0.00967873
9 *766:13 *780:13 1.95991e-05
10 *894:CurrAbsTrim[1] *894:CurrAbsTrim[3] 0.000104636
11 *894:CurrAbsTrim[2] *894:CurrAbsTrim[3] 0.000185134
12 *763:9 *766:9 0.0788033
13 *763:13 *766:13 0.081492
14 *764:7 *766:7 0.000582694
15 *764:9 *766:9 0.0786284
*RES
1 *897:analog_ctrl[80] *766:7 2.29613 
2 *766:7 *766:9 890.055 
3 *766:9 *766:11 0.5 
4 *766:11 *766:13 120.533 
5 *766:13 *894:CurrAbsTrim[3] 5.195 
*END

*D_NET *767 0.277138
*CONN
*I *894:CurrAbsTrim[4] I *D CF_BGR
*I *897:analog_ctrl[81] O *D soc_sys
*CAP
1 *894:CurrAbsTrim[4] 0.00831922
2 *897:analog_ctrl[81] 0.000676263
3 *767:13 0.0546086
4 *767:11 0.0462893
5 *767:9 0.011991
6 *767:7 0.0126672
7 *894:CurrAbsTrim[4] *894:CurrAbsTrim[5] 0.000111631
8 *894:CurrAbsTrim[4] *894:mux2sel 9.12016e-05
9 *894:CurrAbsTrim[4] *894:pd_ibg 0
10 *894:CurrAbsTrim[4] *779:17 0.015892
11 *767:7 *769:7 0.000294387
12 *767:9 *771:11 0.0017368
13 *767:9 *775:9 0.00727273
14 *767:9 *775:19 0.000120392
15 *767:9 *782:9 0.0502604
16 *767:9 *782:13 0.00371012
17 *767:13 *773:46 0
18 *894:trimCurr[5] *894:CurrAbsTrim[4] 1.86715e-05
19 *894:trimCurr[1] *894:CurrAbsTrim[4] 0
20 *733:9 *767:9 0.000689281
21 *762:15 *767:7 0
22 *764:7 *767:7 1.32141e-05
23 *764:9 *767:9 0.061796
24 *766:7 *767:7 0.000579458
*RES
1 *897:analog_ctrl[81] *767:7 2.41267 
2 *767:7 *767:9 698.805 
3 *767:9 *767:11 0.5 
4 *767:11 *767:13 120.33 
5 *767:13 *894:CurrAbsTrim[4] 31.8635 
*END

*D_NET *768 0.263101
*CONN
*I *894:CurrAbsTrim[5] I *D CF_BGR
*I *897:analog_ctrl[82] O *D soc_sys
*CAP
1 *894:CurrAbsTrim[5] 0.000368537
2 *897:analog_ctrl[82] 0.00168468
3 *768:18 0.024891
4 *768:16 0.0245225
5 *768:14 0.0549134
6 *768:12 0.056598
7 *894:CurrAbsTrim[5] *894:mux2sel 0.000117952
8 *768:14 *774:18 0
9 *768:18 *894:inl_ctrl[1] 0
10 *894:trimCurr[1] *894:CurrAbsTrim[5] 0
11 *894:CurrAbsTrim[4] *894:CurrAbsTrim[5] 0.000111631
12 *24:13 *768:18 0
13 *69:21 *768:18 0.00304879
14 *71:29 *768:18 0.0698327
15 *74:77 *768:12 2.06445e-05
16 *81:20 *768:18 0.0269483
17 *118:67 *768:12 3.26119e-05
18 *632:16 *768:14 9.88725e-06
*RES
1 *897:analog_ctrl[82] *768:12 0.961893 
2 *768:12 *768:14 146.034 
3 *768:14 *768:16 0.5 
4 *768:16 *768:18 115.144 
5 *768:18 *894:CurrAbsTrim[5] 7.92125 
*END

*D_NET *769 0.33003
*CONN
*I *894:inl_ctrl[0] I *D CF_BGR
*I *897:analog_ctrl[83] O *D soc_sys
*CAP
1 *894:inl_ctrl[0] 0.00369411
2 *897:analog_ctrl[83] 0.00214003
3 *769:17 0.0327668
4 *769:15 0.0290727
5 *769:13 0.0117249
6 *769:11 0.0117249
7 *769:9 0.00611081
8 *769:7 0.00825083
9 *894:inl_ctrl[0] *781:21 0.010749
10 *769:7 *770:7 0.000748785
11 *769:9 *897:sram_dat_i[11] 0.000380362
12 *769:9 *840:21 0.0112741
13 *769:13 *770:21 0.0703524
14 *894:trimCurr[4] *894:inl_ctrl[0] 0
15 *72:13 *769:13 0.000376454
16 *646:10 *769:9 0.00051097
17 *651:13 *769:9 0
18 *701:9 *769:9 0.0195203
19 *719:9 *769:9 0.000552776
20 *740:11 *769:9 0.000977355
21 *760:37 *894:inl_ctrl[0] 0.00447351
22 *761:21 *769:13 0.0704677
23 *761:25 *769:17 0.033867
24 *767:7 *769:7 0.000294387
*RES
1 *897:analog_ctrl[83] *769:7 5.20947 
2 *769:7 *769:9 232.665 
3 *769:9 *769:11 0.5 
4 *769:11 *769:13 106.346 
5 *769:13 *769:15 0.5 
6 *769:15 *769:17 108.824 
7 *769:17 *894:inl_ctrl[0] 20.4807 
*END

*D_NET *770 0.356641
*CONN
*I *894:inl_ctrl[1] I *D CF_BGR
*I *897:analog_ctrl[84] O *D soc_sys
*CAP
1 *894:inl_ctrl[1] 0.00111959
2 *897:analog_ctrl[84] 0.000844213
3 *770:25 0.0183281
4 *770:23 0.0172085
5 *770:21 0.0159571
6 *770:19 0.0159571
7 *770:17 0.00292943
8 *770:15 0.0030682
9 *770:9 0.00297218
10 *770:7 0.00367762
11 *894:inl_ctrl[1] *894:mux1sel[0] 3.81927e-05
12 *894:inl_ctrl[1] *894:inl_ctrl[3] 2.90961e-05
13 *894:inl_ctrl[1] *894:inl_ctrl[2] 7.15126e-05
14 *894:inl_ctrl[1] *894:inl_ctrl[4] 0.000474504
15 *770:7 *771:11 0.000613518
16 *770:7 *772:11 4.11215e-05
17 *770:9 *772:11 0.00198566
18 *770:9 *779:9 0.000158016
19 *770:15 *793:7 0.000346288
20 *770:15 *862:7 0.000346288
21 *770:17 *808:9 0.00373063
22 *770:17 *813:11 0.000230352
23 *770:21 *779:13 0.0777076
24 *770:25 *894:mux1sel[0] 0.000819776
25 *894:trimCurr[5] *894:inl_ctrl[1] 6.39152e-05
26 *894:trimCurr[1] *894:inl_ctrl[1] 0.0014158
27 *26:17 *770:25 0.0352169
28 *40:21 *770:9 0.000676767
29 *72:13 *770:21 0.000235826
30 *647:25 *770:9 0
31 *665:9 *770:9 0.000252846
32 *670:9 *770:9 0.00224916
33 *671:9 *770:17 0.0115314
34 *676:17 *770:9 0.00160914
35 *723:9 *770:17 0.000621112
36 *739:11 *770:17 0.000669868
37 *757:33 *770:25 0.058579
38 *761:17 *770:17 0.00366966
39 *761:21 *770:21 9.40268e-05
40 *768:18 *894:inl_ctrl[1] 0
41 *769:7 *770:7 0.000748785
42 *769:13 *770:21 0.0703524
*RES
1 *897:analog_ctrl[84] *770:7 2.93707 
2 *770:7 *770:9 87.315 
3 *770:9 *770:15 1.5624 
4 *770:15 *770:17 143.925 
5 *770:17 *770:19 0.5 
6 *770:19 *770:21 119.63 
7 *770:21 *770:23 0.5 
8 *770:23 *770:25 107.36 
9 *770:25 *894:inl_ctrl[1] 7.53342 
*END

*D_NET *771 0.318748
*CONN
*I *894:inl_ctrl[2] I *D CF_BGR
*I *897:analog_ctrl[85] O *D soc_sys
*CAP
1 *894:inl_ctrl[2] 0.000482192
2 *897:analog_ctrl[85] 0.0143517
3 *771:17 0.0299356
4 *771:15 0.0936342
5 *771:11 0.0785325
6 *894:inl_ctrl[2] *894:inl_ctrl[6] 3.99991e-05
7 *894:inl_ctrl[2] *894:inl_ctrl[3] 0.000537473
8 *894:inl_ctrl[2] *894:inl_ctrl[4] 0.000119781
9 *771:11 *772:11 0.000610584
10 *771:11 *775:9 0.0107238
11 *771:11 *779:9 0.000920573
12 *771:11 *782:9 0.00145814
13 *771:17 *894:inl_ctrl[6] 0
14 *894:inl_ctrl[1] *894:inl_ctrl[2] 7.15126e-05
15 *25:17 *771:17 0.0212129
16 *69:17 *771:17 0.0091683
17 *103:39 *771:11 0
18 *665:9 *771:11 0
19 *665:13 *771:15 0.00573062
20 *671:23 *771:15 0.00563433
21 *676:17 *771:11 0.000920573
22 *701:15 *771:15 0.00136229
23 *702:23 *771:15 0.00161432
24 *711:19 *771:15 0.00224715
25 *714:27 *771:15 0.00166484
26 *716:15 *771:15 0.00213352
27 *733:9 *771:11 0.00145814
28 *734:9 *771:11 0.0017368
29 *745:9 *771:11 0.00137432
30 *757:29 *771:15 0.0121533
31 *759:31 *771:15 0.00458927
32 *760:31 *771:15 0.00448953
33 *761:15 *771:11 0.00748948
34 *767:9 *771:11 0.0017368
35 *770:7 *771:11 0.000613518
*RES
1 *897:analog_ctrl[85] *771:11 39.4151 
2 *771:11 *771:15 12.979 
3 *771:15 *771:17 109.6 
4 *771:17 *894:inl_ctrl[2] 3.52347 
*END

*D_NET *772 0.337376
*CONN
*I *894:inl_ctrl[3] I *D CF_BGR
*I *897:analog_ctrl[86] O *D soc_sys
*CAP
1 *894:inl_ctrl[3] 0.000639856
2 *897:analog_ctrl[86] 0.00199486
3 *772:31 0.0142039
4 *772:27 0.0620545
5 *772:17 0.0783516
6 *772:15 0.0307378
7 *772:11 0.00287161
8 *894:inl_ctrl[3] *894:inl_ctrl[6] 4.21127e-05
9 *894:inl_ctrl[3] *894:inl_ctrl[5] 6.61397e-05
10 *894:inl_ctrl[3] *894:inl_ctrl[4] 0.000175996
11 *772:11 *775:7 0
12 *772:11 *779:9 0.00352227
13 *772:11 *826:21 0.000305078
14 *772:15 *897:sram_dat_i[1] 0.00235925
15 *772:15 *800:7 0.00236354
16 *772:17 *781:17 0.00590486
17 *772:27 *784:13 0.00461481
18 *772:27 *784:23 0.0334097
19 *894:inl_ctrl[1] *894:inl_ctrl[3] 2.90961e-05
20 *894:inl_ctrl[2] *894:inl_ctrl[3] 0.000537473
21 *25:17 *772:31 0.000285178
22 *40:21 *772:11 0.000501797
23 *69:17 *772:27 0.000679197
24 *69:17 *772:31 0.0260888
25 *648:35 *772:11 0
26 *657:21 *772:17 0.00701136
27 *686:9 *772:17 0.00263197
28 *696:9 *772:17 0.00652478
29 *699:47 *772:11 0.000323253
30 *704:9 *772:17 0.00462284
31 *715:9 *772:17 0.00462284
32 *718:11 *772:17 0
33 *753:9 *772:17 0.0125679
34 *757:19 *772:17 0.0153402
35 *758:25 *772:17 0.00920058
36 *762:15 *772:11 0.000153582
37 *770:7 *772:11 4.11215e-05
38 *770:9 *772:11 0.00198566
39 *771:11 *772:11 0.000610584
*RES
1 *897:analog_ctrl[86] *772:11 49.8355 
2 *772:11 *772:15 4.2962 
3 *772:15 *772:17 87.4633 
4 *772:17 *772:27 15.9004 
5 *772:27 *772:31 49.1273 
6 *772:31 *894:inl_ctrl[3] 4.76763 
*END

*D_NET *773 0.262037
*CONN
*I *894:inl_ctrl[4] I *D CF_BGR
*I *897:analog_ctrl[87] O *D soc_sys
*CAP
1 *894:inl_ctrl[4] 0.0107979
2 *897:analog_ctrl[87] 0.00600583
3 *773:46 0.0564083
4 *773:44 0.0456104
5 *773:42 0.0310755
6 *773:40 0.0370813
7 *894:inl_ctrl[4] *894:inl_ctrl[5] 0.000122028
8 *894:inl_ctrl[4] *779:17 0
9 *773:40 *774:16 0.000473579
10 *773:40 *776:13 0.00180466
11 *773:40 *777:9 0.00214305
12 *773:40 *787:11 0.0037775
13 *773:42 *776:13 0.00248569
14 *773:42 *776:31 0.00803432
15 *773:42 *777:9 0.0107753
16 *773:42 *787:11 0.00425574
17 *894:trimCurr[5] *894:inl_ctrl[4] 0.000580302
18 *894:inl_ctrl[1] *894:inl_ctrl[4] 0.000474504
19 *894:inl_ctrl[3] *894:inl_ctrl[4] 0.000175996
20 *894:inl_ctrl[2] *894:inl_ctrl[4] 0.000119781
21 *74:77 *773:40 0.00617917
22 *118:67 *773:40 0.004835
23 *118:75 *773:42 0.00118568
24 *692:17 *773:42 0.00880001
25 *694:17 *773:42 0.00584317
26 *699:47 *773:40 0.000358106
27 *699:47 *773:42 0
28 *699:49 *773:42 0.0124795
29 *741:19 *773:40 0.000154468
30 *767:13 *773:46 0
*RES
1 *897:analog_ctrl[87] *773:40 27.2444 
2 *773:40 *773:42 93.0899 
3 *773:42 *773:44 0.5 
4 *773:44 *773:46 118.785 
5 *773:46 *894:inl_ctrl[4] 32.9954 
*END

*D_NET *774 0.20549
*CONN
*I *894:inl_ctrl[5] I *D CF_BGR
*I *897:analog_ctrl[88] O *D soc_sys
*CAP
1 *894:inl_ctrl[5] 0.000890929
2 *897:analog_ctrl[88] 0.00148531
3 *774:22 0.0463432
4 *774:20 0.0454523
5 *774:18 0.0539052
6 *774:16 0.0553905
7 *894:inl_ctrl[5] *894:inl_ctrl[6] 0.00108154
8 *774:16 *776:13 0.000111551
9 *894:inl_ctrl[3] *894:inl_ctrl[5] 6.61397e-05
10 *894:inl_ctrl[4] *894:inl_ctrl[5] 0.000122028
11 *26:13 *774:22 0
12 *44:19 *774:22 0
13 *69:21 *774:22 0
14 *74:77 *774:16 0.00016764
15 *768:14 *774:18 0
16 *773:40 *774:16 0.000473579
*RES
1 *897:analog_ctrl[88] *774:16 2.12693 
2 *774:16 *774:18 143.278 
3 *774:18 *774:20 0.5 
4 *774:20 *774:22 118.319 
5 *774:22 *894:inl_ctrl[5] 6.30143 
*END

*D_NET *775 0.297543
*CONN
*I *894:inl_ctrl[6] I *D CF_BGR
*I *897:analog_ctrl[89] O *D soc_sys
*CAP
1 *894:inl_ctrl[6] 0.0150873
2 *897:analog_ctrl[89] 0.000749798
3 *775:29 0.0462608
4 *775:27 0.0313305
5 *775:21 0.0104893
6 *775:19 0.0104386
7 *775:9 0.0417788
8 *775:7 0.0424223
9 *775:7 *778:7 8.08968e-05
10 *775:9 *782:9 0.0067659
11 *775:9 *782:13 0.000859587
12 *775:19 *782:13 0.000120392
13 *775:29 *782:17 0
14 *892:sample_width[0] *775:21 0.00260616
15 *892:trimunit *775:21 0.00316884
16 *892:dly_inc *775:29 0.000554973
17 *894:inl_ctrl[5] *894:inl_ctrl[6] 0.00108154
18 *894:inl_ctrl[3] *894:inl_ctrl[6] 4.21127e-05
19 *894:inl_ctrl[2] *894:inl_ctrl[6] 3.99991e-05
20 *74:77 *775:9 9.14358e-05
21 *103:39 *775:9 0
22 *648:35 *775:7 0.000728712
23 *652:13 *775:21 0.000259468
24 *657:9 *775:21 0.00359914
25 *657:19 *775:19 0.000148616
26 *672:21 *775:21 0.0128868
27 *672:39 *775:21 0.000590016
28 *695:13 *775:21 0
29 *696:13 *775:21 0
30 *699:47 *775:7 3.98312e-05
31 *723:13 *775:21 0.00053853
32 *725:13 *775:29 3.92474e-05
33 *728:43 *775:19 0.000148616
34 *728:43 *775:21 0.00286558
35 *730:13 *775:29 0.00471009
36 *745:9 *775:9 0.000500776
37 *763:9 *775:9 0.0177937
38 *764:9 *775:9 0.010929
39 *766:9 *775:9 0.00967873
40 *767:9 *775:9 0.00727273
41 *767:9 *775:19 0.000120392
42 *771:11 *775:9 0.0107238
43 *771:17 *894:inl_ctrl[6] 0
44 *772:11 *775:7 0
*RES
1 *897:analog_ctrl[89] *775:7 2.267 
2 *775:7 *775:9 108.566 
3 *775:9 *775:19 4.74943 
4 *775:19 *775:21 249.885 
5 *775:21 *775:27 4.7725 
6 *775:27 *775:29 80.5334 
7 *775:29 *894:inl_ctrl[6] 40.0719 
*END

*D_NET *776 0.237347
*CONN
*I *892:pd I *D CF_ADC_SAR12
*I *893:pd I *D CF_ADC_SAR12_sar_refs
*I *897:analog_ctrl[8] O *D soc_sys
*CAP
1 *892:pd 0.00966756
2 *893:pd 0.00675267
3 *897:analog_ctrl[8] 0.000233497
4 *776:31 0.0218775
5 *776:13 0.0296137
6 *776:11 0.0108845
7 *893:pd *893:pd_ana 0.0206487
8 *776:11 *787:9 0.000184836
9 *776:11 *787:11 0
10 *776:13 *777:9 0.0251602
11 *776:13 *787:11 0.00425939
12 *776:31 *777:9 0.0314955
13 *892:sample_width[1] *892:pd 3.47588e-05
14 *892:sel_csel_dft[0] *892:pd 0.000219529
15 *892:sof *892:pd 0.00403763
16 *892:test_sea *892:pd 0.00203414
17 *892:iso_en *892:pd 0.00368139
18 *892:vdda *892:pd 2.20023e-05
19 *892:cap_trim[2] *892:pd 0.0237353
20 *892:dft_outc[1] *892:pd 0.0130429
21 *892:dft_outc[0] *892:pd 1.87206e-05
22 *893:hiz *893:pd 0.000107689
23 *893:sw_start *893:pd 0.0034752
24 *67:247 *776:13 0.00142452
25 *112:37 *776:11 0
26 *118:67 *776:13 0.00272507
27 *118:75 *776:13 0
28 *118:75 *776:31 0
29 *646:8 *892:pd 0.000301051
30 *647:23 *892:pd 0.000304227
31 *648:19 *892:pd 0.00102844
32 *648:37 *776:11 0
33 *676:7 *776:11 1.32141e-05
34 *699:19 *776:11 0
35 *699:21 *776:13 0.00696648
36 *700:11 *776:13 0
37 *726:13 *892:pd 0.00055203
38 *741:19 *776:13 0.000370722
39 *754:7 *776:11 3.73442e-05
40 *773:40 *776:13 0.00180466
41 *773:42 *776:13 0.00248569
42 *773:42 *776:31 0.00803432
43 *774:16 *776:13 0.000111551
*RES
1 *897:analog_ctrl[8] *776:11 4.81967 
2 *776:11 *776:13 364.755 
3 *776:13 *893:pd 33.0418 
4 *776:13 *776:31 353.535 
5 *776:31 *892:pd 49.7997 
*END

*D_NET *777 0.268561
*CONN
*I *894:mux1sel[0] I *D CF_BGR
*I *897:analog_ctrl[90] O *D soc_sys
*CAP
1 *894:mux1sel[0] 0.00321863
2 *897:analog_ctrl[90] 2.50108e-05
3 *777:13 0.0505445
4 *777:11 0.0473259
5 *777:9 0.0180454
6 *777:7 0.0180705
7 *894:mux1sel[0] *894:mux2sel 0.000137512
8 *894:mux1sel[0] *894:pd_ibg 0.000495551
9 *894:mux1sel[0] *784:25 0
10 *777:9 *787:11 0.0251178
11 *894:trimCurr[1] *894:mux1sel[0] 0.000913466
12 *894:inl_ctrl[1] *894:mux1sel[0] 3.81927e-05
13 *26:17 *894:mux1sel[0] 0.00484417
14 *118:67 *777:9 0.000660546
15 *118:75 *777:9 0
16 *652:31 *777:9 1.65398e-05
17 *656:23 *777:9 0
18 *692:17 *777:9 0.00252301
19 *694:17 *777:9 0.0261756
20 *757:33 *894:mux1sel[0] 1.51394e-05
21 *770:25 *894:mux1sel[0] 0.000819776
22 *773:40 *777:9 0.00214305
23 *773:42 *777:9 0.0107753
24 *776:13 *777:9 0.0251602
25 *776:31 *777:9 0.0314955
*RES
1 *897:analog_ctrl[90] *777:7 0.548133 
2 *777:7 *777:9 793.155 
3 *777:9 *777:11 0.5 
4 *777:11 *777:13 116.134 
5 *777:13 *894:mux1sel[0] 16.7585 
*END

*D_NET *778 0.330442
*CONN
*I *894:mux1sel[1] I *D CF_BGR
*I *897:analog_ctrl[91] O *D soc_sys
*CAP
1 *894:mux1sel[1] 0.000157151
2 *897:analog_ctrl[91] 0.00396918
3 *778:13 0.016049
4 *778:11 0.0158919
5 *778:9 0.0323146
6 *778:7 0.0362838
7 *894:mux1sel[1] *894:dft_sel 0.000331026
8 *778:7 *779:7 0.000704301
9 *778:7 *780:7 0.000138182
10 *778:9 *780:9 0
11 *778:9 *828:17 0.00185489
12 *778:13 *780:13 0.0501041
13 *40:19 *778:7 0.00414719
14 *648:35 *778:7 0.000853354
15 *721:9 *778:9 0.0241716
16 *724:9 *778:9 0.0583884
17 *725:9 *778:9 0.00212033
18 *758:23 *778:7 1.8062e-05
19 *758:29 *778:13 0.0017278
20 *763:13 *778:13 1.35034e-05
21 *764:13 *778:13 0.0811224
22 *775:7 *778:7 8.08968e-05
*RES
1 *897:analog_ctrl[91] *778:7 11.007 
2 *778:7 *778:9 148.101 
3 *778:9 *778:11 0.5 
4 *778:11 *778:13 128.603 
5 *778:13 *894:mux1sel[1] 4.4225 
*END

*D_NET *779 0.323227
*CONN
*I *894:mux2sel I *D CF_BGR
*I *897:analog_ctrl[92] O *D soc_sys
*CAP
1 *894:mux2sel 0.000148307
2 *897:analog_ctrl[92] 0.000689674
3 *779:17 0.0366356
4 *779:15 0.0364873
5 *779:13 0.0154602
6 *779:11 0.0154602
7 *779:9 0.00475016
8 *779:7 0.00543983
9 *779:7 *780:7 6.16587e-05
10 *779:9 *826:21 0.00699107
11 *894:CurrAbsTrim[5] *894:mux2sel 0.000117952
12 *894:trimCurr[5] *894:mux2sel 2.38374e-05
13 *894:trimCurr[1] *894:mux2sel 0.000231101
14 *894:CurrAbsTrim[4] *894:mux2sel 9.12016e-05
15 *894:CurrAbsTrim[4] *779:17 0.015892
16 *894:mux1sel[0] *894:mux2sel 0.000137512
17 *894:inl_ctrl[4] *779:17 0
18 *70:16 *779:17 0
19 *72:13 *779:13 0.0789204
20 *670:9 *779:9 0
21 *676:17 *779:9 0.0142189
22 *745:9 *779:9 0.00706062
23 *758:23 *779:7 0.00125972
24 *762:15 *779:9 0.000137349
25 *770:9 *779:9 0.000158016
26 *770:21 *779:13 0.0777076
27 *771:11 *779:9 0.000920573
28 *772:11 *779:9 0.00352227
29 *778:7 *779:7 0.000704301
*RES
1 *897:analog_ctrl[92] *779:7 2.76227 
2 *779:7 *779:9 222.465 
3 *779:9 *779:11 0.5 
4 *779:11 *779:13 120.796 
5 *779:13 *779:15 0.5 
6 *779:15 *779:17 107.619 
7 *779:17 *894:mux2sel 3.37597 
*END

*D_NET *780 0.367183
*CONN
*I *894:dft_sel I *D CF_BGR
*I *897:analog_ctrl[93] O *D soc_sys
*CAP
1 *894:dft_sel 0.000206471
2 *897:analog_ctrl[93] 0.00312593
3 *780:13 0.016378
4 *780:11 0.0161715
5 *780:9 0.0230468
6 *780:7 0.0261727
7 *894:dft_sel *894:pd 2.28451e-05
8 *780:7 *781:13 0.000687295
9 *780:9 *807:9 0.00180431
10 *780:9 *886:9 0.000950921
11 *894:mux1sel[1] *894:dft_sel 0.000331026
12 *40:19 *780:7 0.000569494
13 *67:217 *780:9 0.0010249
14 *725:9 *780:9 0.0586795
15 *741:23 *780:7 0.00313579
16 *756:9 *780:9 0.0797497
17 *758:23 *780:7 0.0037892
18 *763:13 *780:13 0.0810127
19 *766:13 *780:13 1.95991e-05
20 *778:7 *780:7 0.000138182
21 *778:9 *780:9 0
22 *778:13 *780:13 0.0501041
23 *779:7 *780:7 6.16587e-05
*RES
1 *897:analog_ctrl[93] *780:7 10.4243 
2 *780:7 *780:9 147.929 
3 *780:9 *780:11 0.5 
4 *780:11 *780:13 127.962 
5 *780:13 *894:dft_sel 5.375 
*END

*D_NET *781 0.329715
*CONN
*I *894:pd I *D CF_BGR
*I *897:analog_ctrl[94] O *D soc_sys
*CAP
1 *894:pd 0.000571929
2 *897:analog_ctrl[94] 0.00431164
3 *781:21 0.0201376
4 *781:19 0.0195657
5 *781:17 0.040766
6 *781:15 0.040766
7 *781:13 0.00431164
8 *781:13 *782:7 0.000634027
9 *781:13 *783:15 0.000328877
10 *781:13 *784:7 0
11 *781:13 *784:9 0.0031626
12 *781:13 *855:7 0.000429666
13 *781:13 *870:11 0.00100079
14 *781:21 *783:21 0.0615594
15 *894:CurrAbsTrim[0] *894:pd 4.15236e-05
16 *894:dft_sel *894:pd 2.28451e-05
17 *894:inl_ctrl[0] *781:21 0.010749
18 *658:21 *781:17 0.000148422
19 *675:9 *781:17 0.00437616
20 *678:9 *781:13 0.000737279
21 *697:9 *781:17 0.0224678
22 *707:9 *781:13 0.000148028
23 *718:11 *781:17 0.0149576
24 *741:23 *781:13 0.00313383
25 *741:25 *781:17 0.00393054
26 *746:9 *781:13 0
27 *755:13 *781:21 0.0627135
28 *756:13 *894:pd 1.37499e-05
29 *758:23 *781:13 0.000109407
30 *760:37 *781:21 0.00202739
31 *772:17 *781:17 0.00590486
32 *780:7 *781:13 0.000687295
*RES
1 *897:analog_ctrl[94] *781:13 49.7403 
2 *781:13 *781:15 0.5 
3 *781:15 *781:17 139.402 
4 *781:17 *781:19 0.5 
5 *781:19 *781:21 123.563 
6 *781:21 *894:pd 3.67212 
*END

*D_NET *782 0.280366
*CONN
*I *894:pd_ibg I *D CF_BGR
*I *897:analog_ctrl[95] O *D soc_sys
*CAP
1 *894:pd_ibg 0.0137096
2 *897:analog_ctrl[95] 0.000631679
3 *782:17 0.0480259
4 *782:15 0.0343163
5 *782:13 0.00298575
6 *782:11 0.00301022
7 *782:9 0.01533
8 *782:7 0.0159372
9 *782:7 *783:15 0.000631244
10 *892:sample_width[7] *782:17 0
11 *894:CurrAbsTrim[4] *894:pd_ibg 0
12 *894:mux1sel[0] *894:pd_ibg 0.000495551
13 *670:9 *782:13 0
14 *730:13 *782:17 0
15 *733:9 *782:9 0.0199413
16 *745:9 *782:9 0.00113559
17 *749:13 *782:17 0.0604068
18 *750:13 *782:17 0
19 *757:33 *894:pd_ibg 0
20 *767:9 *782:9 0.0502604
21 *767:9 *782:13 0.00371012
22 *771:11 *782:9 0.00145814
23 *775:9 *782:9 0.0067659
24 *775:9 *782:13 0.000859587
25 *775:19 *782:13 0.000120392
26 *775:29 *782:17 0
27 *781:13 *782:7 0.000634027
*RES
1 *897:analog_ctrl[95] *782:7 2.47093 
2 *782:7 *782:9 568.185 
3 *782:9 *782:11 0.45 
4 *782:11 *782:13 75.135 
5 *782:13 *782:15 0.5 
6 *782:15 *782:17 119.397 
7 *782:17 *894:pd_ibg 39.3565 
*END

*D_NET *783 0.278204
*CONN
*I *894:finetune I *D CF_BGR
*I *897:analog_ctrl[96] O *D soc_sys
*CAP
1 *894:finetune 0.00053747
2 *897:analog_ctrl[96] 0.00445626
3 *783:21 0.0258211
4 *783:19 0.0252837
5 *783:17 0.0334551
6 *783:15 0.0379114
7 *783:15 *897:sram_dat_i[2] 0.00109836
8 *783:15 *784:7 0.00131576
9 *783:15 *811:7 1.73281e-05
10 *783:15 *829:21 0.000221881
11 *783:15 *856:7 0.00113696
12 *783:17 *853:13 0
13 *783:17 *890:9 0
14 *44:13 *894:finetune 0.000190749
15 *650:35 *783:15 0.00301069
16 *652:33 *783:15 0.00211989
17 *674:9 *783:17 0
18 *678:9 *783:17 0
19 *730:9 *783:17 0.0529987
20 *736:11 *783:15 0.000384906
21 *755:9 *783:17 0.0249047
22 *755:13 *783:21 0.000777435
23 *758:29 *894:finetune 9.45508e-06
24 *762:21 *894:finetune 3.25777e-05
25 *781:13 *783:15 0.000328877
26 *781:21 *783:21 0.0615594
27 *782:7 *783:15 0.000631244
*RES
1 *897:analog_ctrl[96] *783:15 16.4948 
2 *783:15 *783:17 820.695 
3 *783:17 *783:19 0.5 
4 *783:19 *783:21 96.2071 
5 *783:21 *894:finetune 3.27217 
*END

*D_NET *784 0.303616
*CONN
*I *894:en_startb I *D CF_BGR
*I *897:analog_ctrl[97] O *D soc_sys
*CAP
1 *894:en_startb 0.000213669
2 *897:analog_ctrl[97] 0.00344644
3 *784:25 0.0273538
4 *784:23 0.0491637
5 *784:13 0.0421633
6 *784:11 0.0201398
7 *784:9 0.020078
8 *784:7 0.0235244
9 *892:VPUMP *784:23 0
10 *894:mux1sel[0] *784:25 0
11 *77:17 *784:25 0.027953
12 *678:9 *784:9 0
13 *707:9 *784:9 0.0470765
14 *760:33 *784:23 0
15 *772:27 *784:13 0.00461481
16 *772:27 *784:23 0.0334097
17 *781:13 *784:7 0
18 *781:13 *784:9 0.0031626
19 *783:15 *784:7 0.00131576
*RES
1 *897:analog_ctrl[97] *784:7 7.65667 
2 *784:7 *784:9 545.805 
3 *784:9 *784:11 0.5 
4 *784:11 *784:13 52.1575 
5 *784:13 *784:23 8.70897 
6 *784:23 *784:25 89.0137 
7 *784:25 *894:en_startb 4.07847 
*END

*D_NET *787 0.193275
*CONN
*I *893:pd_ana I *D CF_ADC_SAR12_sar_refs
*I *892:pd_ana I *D CF_ADC_SAR12
*I *897:analog_ctrl[9] O *D soc_sys
*CAP
1 *893:pd_ana 0.00480539
2 *892:pd_ana 0.00642608
3 *897:analog_ctrl[9] 0.000155612
4 *787:23 0.0279765
5 *787:21 0.0346564
6 *787:13 0.0179114
7 *787:11 0.0112874
8 *787:9 0.011443
9 *892:vssa *892:pd_ana 0
10 *892:dft_inc[3] *892:pd_ana 0
11 *893:pd *893:pd_ana 0.0206487
12 *893:hiz *893:pd_ana 0.00923297
13 *893:sw_start *893:pd_ana 0
14 *118:67 *787:11 0.00118571
15 *648:37 *787:11 0.00731769
16 *676:7 *787:9 4.29253e-05
17 *692:15 *893:pd_ana 0.00248081
18 *692:15 *787:21 5.59166e-05
19 *692:17 *787:11 5.35797e-05
20 *773:40 *787:11 0.0037775
21 *773:42 *787:11 0.00425574
22 *776:11 *787:9 0.000184836
23 *776:11 *787:11 0
24 *776:13 *787:11 0.00425939
25 *777:9 *787:11 0.0251178
*RES
1 *897:analog_ctrl[9] *787:9 3.4714 
2 *787:9 *787:11 364.755 
3 *787:11 *787:13 0.5 
4 *787:13 *787:21 35.1041 
5 *787:21 *787:23 57.1444 
6 *787:23 *892:pd_ana 11.137 
7 *787:13 *893:pd_ana 33.4916 
*END

*D_NET *788 0.0877858
*CONN
*I *897:sram_ack_i I *D soc_sys
*I *898:wbs_ack_o O *D CF_SRAM_1024x32_wb_wrapper
*CAP
1 *897:sram_ack_i 0.00128795
2 *898:wbs_ack_o 0.00390888
3 *788:13 0.00547177
4 *788:11 0.00809271
5 *897:sram_ack_i *821:7 0.00112896
6 *788:11 *898:wbs_cyc_i 0
7 *788:11 *898:wbs_dat_i[11] 0.000700586
8 *788:11 *898:wbs_sel_i[1] 0.010362
9 *788:11 *824:19 0.00128728
10 *788:11 *826:19 0.0012538
11 *788:11 *827:9 0.00224186
12 *788:11 *828:9 0.002121
13 *788:11 *829:19 0.000568155
14 *788:11 *844:15 0.00912445
15 *788:11 *848:21 0.0046236
16 *788:11 *861:19 0.00101868
17 *788:13 *792:9 0
18 *788:13 *859:9 0.000556117
19 *788:13 *881:9 0.0173651
20 *898:wb_rst_i *788:11 0
21 *141:13 *788:11 6.17286e-05
22 *143:39 *788:11 0.00159013
23 *650:35 *788:13 0.001085
24 *656:25 *788:13 0.00387019
25 *690:7 *897:sram_ack_i 0.00112896
26 *711:9 *788:13 0.00832913
27 *736:11 *788:13 0.000607733
*RES
1 *898:wbs_ack_o *788:11 35.0784 
2 *788:11 *788:13 208.695 
3 *788:13 *897:sram_ack_i 4.21893 
*END

*D_NET *789 0.082662
*CONN
*I *898:wbs_adr_i[0] I *D CF_SRAM_1024x32_wb_wrapper
*I *897:sram_adr_o[0] O *D soc_sys
*CAP
1 *898:wbs_adr_i[0] 0.00398386
2 *897:sram_adr_o[0] 0.000152675
3 *789:9 0.00968144
4 *789:7 0.00585026
5 *898:wbs_adr_i[0] *898:wbs_dat_i[0] 0
6 *898:wbs_adr_i[0] *898:wbs_dat_i[1] 4.70134e-05
7 *898:wbs_adr_i[0] *898:wbs_we_i 0
8 *898:wbs_adr_i[0] *790:17 0.00398032
9 *898:wbs_adr_i[0] *791:19 2.11973e-05
10 *898:wbs_adr_i[0] *792:19 0.000789625
11 *898:wbs_adr_i[0] *795:19 0.00373762
12 *898:wbs_adr_i[0] *797:19 0.00179767
13 *898:wbs_adr_i[0] *822:11 0.0125362
14 *898:wbs_adr_i[0] *825:19 0.000213696
15 *898:wbs_adr_i[0] *833:11 0.000186187
16 *898:wbs_adr_i[0] *849:11 0.0104169
17 *789:7 *897:sram_dat_i[0] 0.000169128
18 *789:7 *891:7 0.000169128
19 *104:26 *789:9 0.0174948
20 *112:37 *789:9 4.36573e-06
21 *113:13 *898:wbs_adr_i[0] 0.000319031
22 *141:13 *898:wbs_adr_i[0] 0.000760313
23 *142:18 *898:wbs_adr_i[0] 0
24 *676:9 *789:9 0.0103506
25 *754:9 *789:9 0
*RES
1 *897:sram_adr_o[0] *789:7 1.01427 
2 *789:7 *789:9 208.695 
3 *789:9 *898:wbs_adr_i[0] 35.3684 
*END

*D_NET *790 0.110311
*CONN
*I *898:wbs_adr_i[10] I *D CF_SRAM_1024x32_wb_wrapper
*I *897:sram_adr_o[10] O *D soc_sys
*CAP
1 *898:wbs_adr_i[10] 7.7886e-05
2 *897:sram_adr_o[10] 0.0319103
3 *790:17 0.0319882
4 *898:wbs_adr_i[10] *839:12 0.000200407
5 *790:17 *897:sram_dat_i[10] 0.000923936
6 *790:17 *898:wbs_dat_i[10] 0.000113263
7 *790:17 *898:wbs_dat_i[11] 0.000354076
8 *790:17 *791:9 0.00171319
9 *790:17 *792:9 0.0013035
10 *790:17 *792:19 0.00108522
11 *790:17 *794:9 0.0013035
12 *790:17 *795:9 0.00219885
13 *790:17 *795:19 0.000879831
14 *790:17 *808:9 0.00153211
15 *790:17 *824:19 0.0155247
16 *790:17 *826:19 0.000128196
17 *790:17 *849:11 0.00339989
18 *790:17 *890:7 0.000971687
19 *898:wbs_adr_i[0] *790:17 0.00398032
20 *107:21 *898:wbs_adr_i[10] 0
21 *141:13 *790:17 0.00021914
22 *650:35 *790:17 0
23 *665:9 *790:17 0.0006038
24 *672:9 *790:17 0
25 *723:9 *790:17 0.000112534
26 *736:11 *790:17 0
27 *739:11 *790:17 0.00950038
28 *762:17 *790:17 0.000286602
*RES
1 *897:sram_adr_o[10] *790:17 49.9761 
2 *790:17 *898:wbs_adr_i[10] 1.3002 
*END

*D_NET *791 0.0949052
*CONN
*I *898:wbs_adr_i[11] I *D CF_SRAM_1024x32_wb_wrapper
*I *897:sram_adr_o[11] O *D soc_sys
*CAP
1 *898:wbs_adr_i[11] 0.000502832
2 *897:sram_adr_o[11] 0.00102382
3 *791:21 0.00611455
4 *791:19 0.00768114
5 *791:9 0.00870952
6 *791:7 0.00766392
7 *898:wbs_adr_i[11] *823:15 0
8 *898:wbs_adr_i[11] *824:19 0
9 *791:7 *897:sram_dat_i[11] 0.000900347
10 *791:7 *860:7 0.000900347
11 *791:9 *797:9 0.000183528
12 *791:9 *808:9 0.0211278
13 *791:19 *898:wbs_adr_i[4] 0.00207354
14 *791:19 *898:wbs_adr_i[6] 2.11417e-05
15 *791:19 *794:19 0.00350148
16 *791:19 *797:19 0.00158002
17 *791:19 *833:11 0.00289842
18 *791:21 *792:21 0.0165519
19 *791:21 *822:11 0.00211255
20 *898:wbs_adr_i[0] *791:19 2.11973e-05
21 *141:21 *791:21 0
22 *142:18 *791:19 0.000116754
23 *647:25 *791:9 0
24 *671:9 *791:9 0.00520389
25 *687:9 *791:9 0
26 *708:9 *791:9 0.000464218
27 *723:9 *791:9 0.003258
28 *739:11 *791:9 0.000581094
29 *790:17 *791:9 0.00171319
*RES
1 *897:sram_adr_o[11] *791:7 3.46147 
2 *791:7 *791:9 244.395 
3 *791:9 *791:19 13.7516 
4 *791:19 *791:21 152.595 
5 *791:21 *898:wbs_adr_i[11] 9.065 
*END

*D_NET *792 0.0988824
*CONN
*I *898:wbs_adr_i[12] I *D CF_SRAM_1024x32_wb_wrapper
*I *897:sram_adr_o[12] O *D soc_sys
*CAP
1 *898:wbs_adr_i[12] 0.000482891
2 *897:sram_adr_o[12] 0.0010491
3 *792:21 0.0032043
4 *792:19 0.00388392
5 *792:9 0.00710309
6 *792:7 0.00698968
7 *898:wbs_adr_i[12] *898:wbs_dat_i[12] 0
8 *898:wbs_adr_i[12] *824:19 0
9 *792:7 *897:sram_dat_i[12] 0.00111931
10 *792:7 *861:7 0.00111931
11 *792:9 *794:9 0.0123077
12 *792:9 *795:9 0
13 *792:19 *795:19 0.0035812
14 *792:19 *825:19 0.00167604
15 *792:19 *827:19 0.00081652
16 *792:19 *836:15 0.000168105
17 *792:19 *853:11 0.000215166
18 *792:19 *855:9 0
19 *792:19 *865:19 2.77839e-05
20 *792:21 *793:17 0.0178902
21 *792:21 *822:11 0.00230479
22 *898:wbs_adr_i[0] *792:19 0.000789625
23 *141:13 *792:19 0.00208244
24 *141:21 *792:21 0
25 *656:25 *792:9 0.0108601
26 *673:17 *792:9 0.00227057
27 *788:13 *792:9 0
28 *790:17 *792:9 0.0013035
29 *790:17 *792:19 0.00108522
30 *791:21 *792:21 0.0165519
*RES
1 *897:sram_adr_o[12] *792:7 3.9276 
2 *792:7 *792:9 250.515 
3 *792:9 *792:19 12.5719 
4 *792:19 *792:21 165.015 
5 *792:21 *898:wbs_adr_i[12] 8.81 
*END

*D_NET *793 0.107502
*CONN
*I *898:wbs_adr_i[13] I *D CF_SRAM_1024x32_wb_wrapper
*I *897:sram_adr_o[13] O *D soc_sys
*CAP
1 *898:wbs_adr_i[13] 0.00046757
2 *897:sram_adr_o[13] 0.00377992
3 *793:17 0.00314834
4 *793:15 0.00268077
5 *793:13 0.00112154
6 *793:11 0.00114633
7 *793:9 0.00360233
8 *793:7 0.00735747
9 *898:wbs_adr_i[13] *898:wbs_dat_i[13] 0
10 *898:wbs_adr_i[13] *825:7 0
11 *793:7 *897:sram_dat_i[13] 0.000712431
12 *793:7 *862:7 0.00293957
13 *793:7 *863:7 0.00129361
14 *793:7 *864:7 0
15 *793:9 *828:17 0
16 *793:9 *836:17 0.00433513
17 *793:9 *847:13 0.014854
18 *793:13 *819:19 0.000117872
19 *793:13 *836:15 0.00029659
20 *793:13 *836:17 0.00422976
21 *793:13 *847:13 0.00259801
22 *793:13 *855:9 5.52193e-05
23 *793:17 *898:wbs_dat_i[1] 0.00223083
24 *793:17 *794:21 0.000105686
25 *793:17 *796:13 0.0182987
26 *141:21 *793:17 0
27 *732:9 *793:9 0.00376569
28 *742:9 *793:9 0.0101284
29 *770:15 *793:7 0.000346288
30 *792:21 *793:17 0.0178902
*RES
1 *897:sram_adr_o[13] *793:7 11.3275 
2 *793:7 *793:9 196.8 
3 *793:9 *793:11 0.45 
4 *793:11 *793:13 54.7125 
5 *793:13 *793:15 2 
6 *793:15 *793:17 170.535 
7 *793:17 *898:wbs_adr_i[13] 8.555 
*END

*D_NET *794 0.0997647
*CONN
*I *898:wbs_adr_i[14] I *D CF_SRAM_1024x32_wb_wrapper
*I *897:sram_adr_o[14] O *D soc_sys
*CAP
1 *898:wbs_adr_i[14] 0.000422195
2 *897:sram_adr_o[14] 0.00104791
3 *794:21 0.0036248
4 *794:19 0.00422519
5 *794:9 0.00693681
6 *794:7 0.00696214
7 *898:wbs_adr_i[14] *898:wbs_dat_i[14] 0
8 *898:wbs_adr_i[14] *826:7 0
9 *794:7 *897:sram_dat_i[14] 0.00102239
10 *794:7 *863:7 0.00108451
11 *794:9 *795:9 0.012604
12 *794:19 *898:wbs_adr_i[6] 0.000141011
13 *794:19 *795:19 2.85364e-05
14 *794:19 *822:13 8.08514e-05
15 *794:21 *795:21 0.0203648
16 *794:21 *796:13 0.0188561
17 *794:21 *797:21 1.91597e-05
18 *794:21 *833:11 0.00223083
19 *65:21 *794:19 0.000290608
20 *142:18 *794:19 0.00238937
21 *673:17 *794:9 0.000215108
22 *790:17 *794:9 0.0013035
23 *791:19 *794:19 0.00350148
24 *792:9 *794:9 0.0123077
25 *793:17 *794:21 0.000105686
*RES
1 *897:sram_adr_o[14] *794:7 3.81107 
2 *794:7 *794:9 253.065 
3 *794:9 *794:19 9.4543 
4 *794:19 *794:21 188.475 
5 *794:21 *898:wbs_adr_i[14] 8.045 
*END

*D_NET *795 0.105323
*CONN
*I *898:wbs_adr_i[15] I *D CF_SRAM_1024x32_wb_wrapper
*I *897:sram_adr_o[15] O *D soc_sys
*CAP
1 *898:wbs_adr_i[15] 0.000403661
2 *897:sram_adr_o[15] 0.00106348
3 *795:21 0.00340989
4 *795:19 0.00386443
5 *795:9 0.00703804
6 *795:7 0.00724333
7 *898:wbs_adr_i[15] *898:wbs_dat_i[15] 0
8 *898:wbs_adr_i[15] *827:7 0
9 *795:7 *897:sram_dat_i[15] 0.000983146
10 *795:7 *864:7 0.000983146
11 *795:9 *797:9 0.0124444
12 *795:19 *822:13 4.98194e-05
13 *795:19 *885:9 0
14 *795:21 *796:13 0.000325736
15 *795:21 *797:21 0.0209223
16 *795:21 *833:11 0.00243384
17 *898:wbs_adr_i[0] *795:19 0.00373762
18 *141:13 *795:19 9.40268e-05
19 *673:17 *795:9 0
20 *761:17 *795:9 0.000668835
21 *790:17 *795:9 0.00219885
22 *790:17 *795:19 0.000879831
23 *792:9 *795:9 0
24 *792:19 *795:19 0.0035812
25 *794:9 *795:9 0.012604
26 *794:19 *795:19 2.85364e-05
27 *794:21 *795:21 0.0203648
*RES
1 *897:sram_adr_o[15] *795:7 3.69453 
2 *795:7 *795:9 259.185 
3 *795:9 *795:19 11.1591 
4 *795:19 *795:21 193.305 
5 *795:21 *898:wbs_adr_i[15] 7.79 
*END

*D_NET *796 0.116234
*CONN
*I *898:wbs_adr_i[16] I *D CF_SRAM_1024x32_wb_wrapper
*I *897:sram_adr_o[16] O *D soc_sys
*CAP
1 *898:wbs_adr_i[16] 0.000431292
2 *897:sram_adr_o[16] 0.00422107
3 *796:13 0.00359935
4 *796:11 0.00316806
5 *796:9 0.00389454
6 *796:7 0.00811561
7 *898:wbs_adr_i[16] *898:wbs_dat_i[16] 0
8 *898:wbs_adr_i[16] *828:7 0
9 *796:7 *897:sram_dat_i[15] 5.82544e-05
10 *796:7 *897:sram_dat_i[16] 0.00136637
11 *796:7 *897:sram_dat_i[17] 0
12 *796:7 *864:7 0
13 *796:7 *865:7 0.00160524
14 *796:7 *866:7 0.000385554
15 *796:7 *867:7 0
16 *796:9 *798:9 0.022817
17 *796:9 *804:9 0.000136882
18 *796:9 *806:15 0.00153712
19 *796:9 *832:19 0.000614563
20 *796:9 *836:15 2.7493e-05
21 *796:9 *864:9 0.0221768
22 *796:9 *864:23 2.03693e-05
23 *796:13 *898:wbs_dat_i[1] 0.00243384
24 *796:13 *797:21 0.000221193
25 *67:231 *796:7 0.00105433
26 *683:9 *796:9 0
27 *732:9 *796:9 0.000869031
28 *793:17 *796:13 0.0182987
29 *794:21 *796:13 0.0188561
30 *795:21 *796:13 0.000325736
*RES
1 *897:sram_adr_o[16] *796:7 11.6771 
2 *796:7 *796:9 260.332 
3 *796:9 *796:11 2 
4 *796:11 *796:13 184.335 
5 *796:13 *898:wbs_adr_i[16] 8.3 
*END

*D_NET *797 0.108585
*CONN
*I *898:wbs_adr_i[17] I *D CF_SRAM_1024x32_wb_wrapper
*I *897:sram_adr_o[17] O *D soc_sys
*CAP
1 *898:wbs_adr_i[17] 0.000388381
2 *897:sram_adr_o[17] 0.000940629
3 *797:21 0.00416633
4 *797:19 0.00482288
5 *797:9 0.00640145
6 *797:7 0.00629714
7 *898:wbs_adr_i[17] *898:wbs_dat_i[17] 0
8 *898:wbs_adr_i[17] *829:7 0
9 *797:7 *897:sram_dat_i[17] 0.0010061
10 *797:7 *866:7 0.0010061
11 *797:9 *808:9 0.0227104
12 *797:19 *833:11 0.000135515
13 *797:19 *844:17 5.4378e-05
14 *797:21 *898:wbs_adr_i[4] 0.000387151
15 *797:21 *802:13 0.0211164
16 *797:21 *807:13 3.81175e-05
17 *898:wbs_adr_i[0] *797:19 0.00179767
18 *113:21 *797:21 0.0001469
19 *739:11 *797:9 0.000604645
20 *761:17 *797:9 0.00119414
21 *791:9 *797:9 0.000183528
22 *791:19 *797:19 0.00158002
23 *794:21 *797:21 1.91597e-05
24 *795:9 *797:9 0.0124444
25 *795:21 *797:21 0.0209223
26 *796:13 *797:21 0.000221193
*RES
1 *897:sram_adr_o[17] *797:7 3.578 
2 *797:7 *797:9 263.775 
3 *797:9 *797:19 9.06837 
4 *797:19 *797:21 209.175 
5 *797:21 *898:wbs_adr_i[17] 7.535 
*END

*D_NET *798 0.117925
*CONN
*I *898:wbs_adr_i[18] I *D CF_SRAM_1024x32_wb_wrapper
*I *897:sram_adr_o[18] O *D soc_sys
*CAP
1 *898:wbs_adr_i[18] 0.000114569
2 *897:sram_adr_o[18] 0.00344713
3 *798:13 0.0040756
4 *798:11 0.00396103
5 *798:9 0.00380744
6 *798:7 0.00725457
7 *798:7 *897:sram_dat_i[18] 0.00341888
8 *798:7 *799:5 0
9 *798:7 *867:7 0.00338284
10 *798:9 *804:9 0.0233683
11 *798:9 *806:15 0.00153712
12 *798:13 *898:wbs_adr_i[2] 0.00199426
13 *798:13 *808:21 0.0214489
14 *798:13 *819:21 6.00027e-05
15 *798:13 *820:21 0.0162505
16 *798:13 *838:11 0.000118286
17 *142:26 *798:13 0
18 *732:9 *798:9 0.000869031
19 *796:9 *798:9 0.022817
*RES
1 *897:sram_adr_o[18] *798:7 11.6188 
2 *798:7 *798:9 261.608 
3 *798:9 *798:11 2 
4 *798:11 *798:13 195.03 
5 *798:13 *898:wbs_adr_i[18] 3.455 
*END

*D_NET *799 0.116582
*CONN
*I *898:wbs_adr_i[19] I *D CF_SRAM_1024x32_wb_wrapper
*I *897:sram_adr_o[19] O *D soc_sys
*CAP
1 *898:wbs_adr_i[19] 0.00219762
2 *897:sram_adr_o[19] 0.0200004
3 *799:9 0.0120047
4 *799:7 0.00980708
5 *799:5 0.0200004
6 *898:wbs_adr_i[19] *898:wbs_adr_i[22] 0.00114802
7 *898:wbs_adr_i[19] *898:wbs_adr_i[24] 0.00582656
8 *898:wbs_adr_i[19] *898:wbs_dat_i[23] 9.28349e-05
9 *898:wbs_adr_i[19] *898:wbs_dat_i[26] 0.000697403
10 *898:wbs_adr_i[19] *898:wbs_dat_i[28] 0.00368726
11 *898:wbs_adr_i[19] *898:wbs_dat_i[29] 0.000433248
12 *898:wbs_adr_i[19] *808:21 0.000109729
13 *898:wbs_adr_i[19] *831:7 0
14 *898:wbs_adr_i[19] *834:11 0.000416966
15 *898:wbs_adr_i[19] *835:11 0.00154755
16 *898:wbs_adr_i[19] *838:11 0.00337069
17 *898:wbs_adr_i[19] *841:29 0.000741678
18 *898:wbs_adr_i[19] *842:15 0.000397111
19 *898:wbs_adr_i[19] *883:21 0.000119028
20 *799:5 *897:sram_dat_i[18] 0.000729347
21 *799:5 *897:sram_dat_i[19] 0.00347881
22 *799:5 *897:sram_dat_i[20] 0
23 *799:5 *801:15 0.010353
24 *799:5 *868:7 0.00190953
25 *799:9 *898:wbs_dat_i[30] 1.7635e-05
26 *799:9 *803:9 0
27 *799:9 *843:16 0.00373388
28 *799:9 *879:9 1.02396e-05
29 *799:9 *882:9 0.0137515
30 *798:7 *799:5 0
*RES
1 *897:sram_adr_o[19] *799:5 58.4313 
2 *799:5 *799:7 0.5 
3 *799:7 *799:9 265.305 
4 *799:9 *898:wbs_adr_i[19] 16.6484 
*END

*D_NET *800 0.0711011
*CONN
*I *898:wbs_adr_i[1] I *D CF_SRAM_1024x32_wb_wrapper
*I *897:sram_adr_o[1] O *D soc_sys
*CAP
1 *898:wbs_adr_i[1] 0.00247201
2 *897:sram_adr_o[1] 0.00359477
3 *800:9 0.00910214
4 *800:7 0.0102249
5 *898:wbs_adr_i[1] *898:wbs_adr_i[6] 0.0121703
6 *898:wbs_adr_i[1] *898:wbs_adr_i[7] 0.000332302
7 *898:wbs_adr_i[1] *898:wbs_dat_i[1] 0
8 *898:wbs_adr_i[1] *822:11 0
9 *898:wbs_adr_i[1] *847:11 0.0115479
10 *800:7 *897:sram_dat_i[0] 0
11 *800:7 *897:sram_dat_i[1] 0.00119876
12 *800:7 *854:7 0.00216229
13 *800:7 *855:7 0
14 *800:7 *870:11 0.000182958
15 *800:9 *814:9 0.0106329
16 *800:9 *886:9 9.62021e-05
17 *800:9 *889:9 0
18 *713:9 *800:9 0.00343907
19 *725:9 *800:9 0.000397671
20 *756:9 *800:9 0.00118338
21 *772:15 *800:7 0.00236354
*RES
1 *897:sram_adr_o[1] *800:7 10.2787 
2 *800:7 *800:9 208.695 
3 *800:9 *898:wbs_adr_i[1] 23.1893 
*END

*D_NET *801 0.0816362
*CONN
*I *898:wbs_adr_i[20] I *D CF_SRAM_1024x32_wb_wrapper
*I *897:sram_adr_o[20] O *D soc_sys
*CAP
1 *898:wbs_adr_i[20] 0.016064
2 *897:sram_adr_o[20] 0.013154
3 *801:15 0.029218
4 *898:wbs_adr_i[20] *810:9 0
5 *898:wbs_adr_i[20] *839:12 2.0104e-05
6 *898:wbs_adr_i[20] *878:19 0
7 *801:15 *897:sram_dat_i[19] 0.000995572
8 *801:15 *897:sram_dat_i[20] 0.0105664
9 *801:15 *869:7 0.00125502
10 *107:21 *898:wbs_adr_i[20] 1.00909e-05
11 *799:5 *801:15 0.010353
*RES
1 *897:sram_adr_o[20] *801:15 47.9955 
2 *801:15 *898:wbs_adr_i[20] 45.2054 
*END

*D_NET *802 0.127974
*CONN
*I *898:wbs_adr_i[21] I *D CF_SRAM_1024x32_wb_wrapper
*I *897:sram_adr_o[21] O *D soc_sys
*CAP
1 *898:wbs_adr_i[21] 0.000389902
2 *897:sram_adr_o[21] 0.00334972
3 *802:13 0.00418635
4 *802:11 0.00379645
5 *802:9 0.00427894
6 *802:7 0.00762866
7 *898:wbs_adr_i[21] *898:wbs_dat_i[20] 0
8 *898:wbs_adr_i[21] *898:wbs_dat_i[21] 0
9 *802:7 *897:sram_dat_i[21] 0.00601855
10 *802:7 *803:5 0
11 *802:7 *871:7 0.000492363
12 *802:7 *872:7 0.000533839
13 *802:9 *831:13 0.0237347
14 *802:9 *863:19 0.0004618
15 *802:9 *867:9 0.0220879
16 *802:9 *867:15 0.000572945
17 *802:13 *898:wbs_adr_i[4] 0.00235059
18 *802:13 *804:13 0.0228388
19 *802:13 *806:21 0.000168047
20 *802:13 *807:13 8.35953e-05
21 *690:9 *802:9 0.000493218
22 *721:9 *802:9 0.0033917
23 *797:21 *802:13 0.0211164
*RES
1 *897:sram_adr_o[21] *802:7 10.7448 
2 *802:7 *802:9 274.612 
3 *802:9 *802:11 2 
4 *802:11 *802:13 215.73 
5 *802:13 *898:wbs_adr_i[21] 7.28 
*END

*D_NET *803 0.131887
*CONN
*I *898:wbs_adr_i[22] I *D CF_SRAM_1024x32_wb_wrapper
*I *897:sram_adr_o[22] O *D soc_sys
*CAP
1 *898:wbs_adr_i[22] 0.00249406
2 *897:sram_adr_o[22] 0.0153832
3 *803:9 0.0120209
4 *803:7 0.00952685
5 *803:5 0.0153832
6 *898:wbs_adr_i[22] *898:wbs_adr_i[24] 0.0058294
7 *898:wbs_adr_i[22] *898:wbs_adr_i[29] 9.50015e-05
8 *898:wbs_adr_i[22] *898:wbs_dat_i[23] 0.000787414
9 *898:wbs_adr_i[22] *898:wbs_dat_i[27] 0.00216188
10 *898:wbs_adr_i[22] *835:11 0
11 *898:wbs_adr_i[22] *836:7 0
12 *898:wbs_adr_i[22] *845:9 0.000674152
13 *803:5 *897:sram_dat_i[20] 0
14 *803:5 *897:sram_dat_i[21] 0
15 *803:5 *897:sram_dat_i[22] 0.00365539
16 *803:5 *872:7 0.00159804
17 *803:5 *873:5 0.00188043
18 *803:5 *874:15 8.86986e-05
19 *803:5 *875:15 0.026069
20 *803:9 *805:17 0.02458
21 *803:9 *843:16 0.00619121
22 *803:9 *882:9 0
23 *898:wbs_adr_i[19] *898:wbs_adr_i[22] 0.00114802
24 *65:13 *898:wbs_adr_i[22] 0.000799576
25 *113:21 *898:wbs_adr_i[22] 0.000738262
26 *142:26 *898:wbs_adr_i[22] 0.000782306
27 *799:9 *803:9 0
28 *802:7 *803:5 0
*RES
1 *897:sram_adr_o[22] *803:5 58.14 
2 *803:5 *803:7 0.5 
3 *803:7 *803:9 275.505 
4 *803:9 *898:wbs_adr_i[22] 14.4072 
*END

*D_NET *804 0.131126
*CONN
*I *898:wbs_adr_i[23] I *D CF_SRAM_1024x32_wb_wrapper
*I *897:sram_adr_o[23] O *D soc_sys
*CAP
1 *898:wbs_adr_i[23] 0.000378877
2 *897:sram_adr_o[23] 0.00320926
3 *804:13 0.00398877
4 *804:11 0.00360989
5 *804:9 0.00445635
6 *804:7 0.00766561
7 *898:wbs_adr_i[23] *898:wbs_dat_i[23] 0
8 *898:wbs_adr_i[23] *836:7 0
9 *898:wbs_adr_i[23] *837:7 0
10 *804:7 *897:sram_dat_i[23] 0.00334703
11 *804:7 *897:sram_dat_i[24] 0.000236878
12 *804:7 *873:5 0.00369069
13 *804:9 *806:15 0.00236057
14 *804:9 *832:21 0.023499
15 *804:9 *836:15 0.000489465
16 *804:9 *836:17 0.000467472
17 *804:9 *875:11 0
18 *804:13 *898:wbs_adr_i[4] 0.00239137
19 *804:13 *898:wbs_dat_i[27] 0.000101633
20 *804:13 *806:21 0.0239561
21 *732:9 *804:9 0.000869031
22 *742:9 *804:9 6.39848e-05
23 *796:9 *804:9 0.000136882
24 *798:9 *804:9 0.0233683
25 *802:13 *804:13 0.0228388
*RES
1 *897:sram_adr_o[23] *804:7 11.5605 
2 *804:7 *804:9 280.478 
3 *804:9 *804:11 2 
4 *804:11 *804:13 221.25 
5 *804:13 *898:wbs_adr_i[23] 7.025 
*END

*D_NET *805 0.143072
*CONN
*I *898:wbs_adr_i[24] I *D CF_SRAM_1024x32_wb_wrapper
*I *897:sram_adr_o[24] O *D soc_sys
*CAP
1 *898:wbs_adr_i[24] 0.00123043
2 *897:sram_adr_o[24] 0.000562902
3 *805:17 0.0110205
4 *805:15 0.00979007
5 *805:13 0.0110608
6 *805:11 0.0116237
7 *898:wbs_adr_i[24] *898:wbs_adr_i[29] 0.00043928
8 *898:wbs_adr_i[24] *837:7 0
9 *898:wbs_adr_i[24] *838:11 0
10 *805:11 *897:sram_dat_i[23] 9.89456e-05
11 *805:11 *897:sram_dat_i[24] 0.000769291
12 *805:11 *874:15 0.000173676
13 *805:13 *897:sram_dat_i[23] 2.1352e-05
14 *805:13 *897:sram_dat_i[24] 0.0174778
15 *805:13 *873:5 0
16 *805:17 *898:wbs_adr_i[30] 0
17 *805:17 *843:16 0.00553681
18 *805:17 *876:9 0
19 *805:17 *882:9 0
20 *898:wbs_adr_i[19] *898:wbs_adr_i[24] 0.00582656
21 *898:wbs_adr_i[22] *898:wbs_adr_i[24] 0.0058294
22 *74:79 *805:11 7.71989e-05
23 *74:79 *805:13 0.0369026
24 *748:9 *805:11 5.10492e-05
25 *803:9 *805:17 0.02458
*RES
1 *897:sram_adr_o[24] *805:11 3.6298 
2 *805:11 *805:13 56.6149 
3 *805:13 *805:15 0.5 
4 *805:15 *805:17 280.095 
5 *805:17 *898:wbs_adr_i[24] 12.4388 
*END

*D_NET *806 0.142597
*CONN
*I *898:wbs_adr_i[25] I *D CF_SRAM_1024x32_wb_wrapper
*I *897:sram_adr_o[25] O *D soc_sys
*CAP
1 *898:wbs_adr_i[25] 0.000360653
2 *897:sram_adr_o[25] 0.0105181
3 *806:21 0.00419623
4 *806:19 0.00383558
5 *806:17 0.00271428
6 *806:15 0.0132324
7 *898:wbs_adr_i[25] *838:11 0
8 *806:15 *897:sram_dat_i[25] 0.00363191
9 *806:15 *820:9 0.00129409
10 *806:15 *832:21 0.00253661
11 *806:15 *836:17 0.00272594
12 *806:15 *864:9 0.00153712
13 *806:15 *875:11 0.003452
14 *806:17 *898:wbs_adr_i[3] 0.000172253
15 *806:17 *811:9 0.0122506
16 *806:17 *828:15 0
17 *806:17 *828:17 0.00521875
18 *806:17 *855:9 0.000129767
19 *806:21 *898:wbs_adr_i[4] 0.00260898
20 *806:21 *898:wbs_dat_i[27] 0.000275007
21 *806:21 *807:13 0.0253712
22 *541:33 *806:17 2.53191e-06
23 *724:9 *806:17 0.000348678
24 *732:9 *806:15 0.0133704
25 *732:9 *806:17 0.000824588
26 *742:7 *806:15 0
27 *742:9 *806:15 0.0024302
28 *796:9 *806:15 0.00153712
29 *798:9 *806:15 0.00153712
30 *802:13 *806:21 0.000168047
31 *804:9 *806:15 0.00236057
32 *804:13 *806:21 0.0239561
*RES
1 *897:sram_adr_o[25] *806:15 37.3289 
2 *806:15 *806:17 140.482 
3 *806:17 *806:19 2 
4 *806:19 *806:21 234.36 
5 *806:21 *898:wbs_adr_i[25] 6.77 
*END

*D_NET *807 0.14147
*CONN
*I *898:wbs_adr_i[26] I *D CF_SRAM_1024x32_wb_wrapper
*I *897:sram_adr_o[26] O *D soc_sys
*CAP
1 *898:wbs_adr_i[26] 0.000337133
2 *897:sram_adr_o[26] 0.00213102
3 *807:13 0.00424764
4 *807:11 0.0039105
5 *807:9 0.00501679
6 *807:7 0.00714781
7 *898:wbs_adr_i[26] *898:wbs_dat_i[26] 0
8 *898:wbs_adr_i[26] *840:7 0
9 *807:7 *897:sram_dat_i[26] 0.00015317
10 *807:7 *897:sram_dat_i[27] 0.00602247
11 *807:7 *876:5 0.000175909
12 *807:7 *878:15 0.00598565
13 *807:9 *837:13 0.0249934
14 *807:9 *886:9 0.0202295
15 *807:13 *898:wbs_adr_i[7] 0.00239137
16 *807:13 *898:wbs_dat_i[27] 0.000407576
17 *67:217 *807:9 0.00280094
18 *113:21 *807:13 0.0262932
19 *690:9 *807:9 0.00038312
20 *713:9 *807:9 0
21 *721:9 *807:9 0.00055234
22 *725:9 *807:9 0.000993218
23 *780:9 *807:9 0.00180431
24 *797:21 *807:13 3.81175e-05
25 *802:13 *807:13 8.35953e-05
26 *806:21 *807:13 0.0253712
*RES
1 *897:sram_adr_o[26] *807:7 10.5117 
2 *807:7 *807:9 289.147 
3 *807:9 *807:11 2 
4 *807:11 *807:13 242.985 
5 *807:13 *898:wbs_adr_i[26] 6.515 
*END

*D_NET *808 0.140737
*CONN
*I *898:wbs_adr_i[27] I *D CF_SRAM_1024x32_wb_wrapper
*I *897:sram_adr_o[27] O *D soc_sys
*CAP
1 *898:wbs_adr_i[27] 9.40879e-05
2 *897:sram_adr_o[27] 0.00100467
3 *808:21 0.0042285
4 *808:19 0.00552081
5 *808:9 0.0065717
6 *808:7 0.00618996
7 *898:wbs_adr_i[27] *898:wbs_dat_i[27] 0
8 *898:wbs_adr_i[27] *840:7 0
9 *808:7 *897:sram_dat_i[27] 0.000165264
10 *808:7 *877:5 0.000979188
11 *808:7 *880:15 0.000548201
12 *808:19 *898:wbs_adr_i[3] 1.94811e-05
13 *808:19 *898:wbs_stb_i 0.00286494
14 *808:19 *819:19 0.000915391
15 *808:19 *828:15 4.04634e-05
16 *808:19 *888:21 0.000434461
17 *808:21 *898:wbs_adr_i[2] 0.00217574
18 *808:21 *898:wbs_dat_i[29] 0.000419595
19 *808:21 *819:21 6.563e-05
20 *808:21 *838:11 0.00012905
21 *808:21 *845:9 0
22 *808:21 *883:21 0.0029695
23 *898:wbs_adr_i[19] *808:21 0.000109729
24 *109:21 *808:19 0.00010189
25 *114:29 *808:21 0.0269908
26 *142:26 *808:21 0
27 *541:27 *808:19 0.00485305
28 *541:35 *808:21 7.65518e-05
29 *656:29 *808:19 0.000366736
30 *671:9 *808:9 0.00025688
31 *739:11 *808:9 0.000649775
32 *761:17 *808:9 0.00144567
33 *770:17 *808:9 0.00373063
34 *790:17 *808:9 0.00153211
35 *791:9 *808:9 0.0211278
36 *797:9 *808:9 0.0227104
37 *798:13 *808:21 0.0214489
*RES
1 *897:sram_adr_o[27] *808:7 3.51973 
2 *808:7 *808:9 289.275 
3 *808:9 *808:19 10.9254 
4 *808:19 *808:21 245.745 
5 *808:21 *898:wbs_adr_i[27] 3.2 
*END

*D_NET *809 0.0893057
*CONN
*I *898:wbs_adr_i[28] I *D CF_SRAM_1024x32_wb_wrapper
*I *897:sram_adr_o[28] O *D soc_sys
*CAP
1 *898:wbs_adr_i[28] 2.74702e-05
2 *897:sram_adr_o[28] 0.00972183
3 *809:17 0.0149791
4 *809:7 0.0246735
5 *898:wbs_adr_i[28] *898:wbs_dat_i[22] 0.000165845
6 *809:7 *897:sram_dat_i[28] 0.0126967
7 *809:7 *877:5 0
8 *809:7 *878:11 0.000181672
9 *809:7 *879:5 0.00342558
10 *809:7 *880:15 0.0117486
11 *809:17 *898:wbs_dat_i[24] 0.0101188
12 *809:17 *898:wbs_dat_i[26] 0.00020957
13 *809:17 *834:11 0.000582261
14 *809:17 *839:12 0.000223122
15 *107:21 *898:wbs_adr_i[28] 5.48672e-05
16 *107:21 *809:17 0.00049671
*RES
1 *897:sram_adr_o[28] *809:7 49.8126 
2 *809:7 *809:17 49.7621 
3 *809:17 *898:wbs_adr_i[28] 0.741933 
*END

*D_NET *810 0.0983147
*CONN
*I *898:wbs_adr_i[29] I *D CF_SRAM_1024x32_wb_wrapper
*I *897:sram_adr_o[29] O *D soc_sys
*CAP
1 *898:wbs_adr_i[29] 0.00128025
2 *897:sram_adr_o[29] 0.00930928
3 *810:9 0.0195419
4 *810:7 0.0275709
5 *898:wbs_adr_i[29] *898:wbs_dat_i[29] 0.000112622
6 *898:wbs_adr_i[29] *834:11 3.99991e-05
7 *898:wbs_adr_i[29] *838:11 4.32417e-05
8 *898:wbs_adr_i[29] *839:12 0.000563887
9 *898:wbs_adr_i[29] *841:29 0.000106667
10 *898:wbs_adr_i[29] *842:15 0.00385306
11 *898:wbs_adr_i[29] *845:9 0.0023257
12 *898:wbs_adr_i[29] *883:9 0.000133107
13 *898:wbs_adr_i[29] *883:19 1.66925e-05
14 *810:7 *897:sram_dat_i[29] 0.0164415
15 *810:7 *879:5 0.0164415
16 *810:9 *883:9 0
17 *898:wbs_adr_i[20] *810:9 0
18 *898:wbs_adr_i[22] *898:wbs_adr_i[29] 9.50015e-05
19 *898:wbs_adr_i[24] *898:wbs_adr_i[29] 0.00043928
20 *107:21 *898:wbs_adr_i[29] 0
*RES
1 *897:sram_adr_o[29] *810:7 47.1323 
2 *810:7 *810:9 49.5647 
3 *810:9 *898:wbs_adr_i[29] 47.3648 
*END

*D_NET *811 0.0938411
*CONN
*I *898:wbs_adr_i[2] I *D CF_SRAM_1024x32_wb_wrapper
*I *897:sram_adr_o[2] O *D soc_sys
*CAP
1 *898:wbs_adr_i[2] 0.00270765
2 *897:sram_adr_o[2] 0.00408013
3 *811:9 0.00721032
4 *811:7 0.00858279
5 *898:wbs_adr_i[2] *898:wbs_adr_i[3] 0.01199
6 *898:wbs_adr_i[2] *898:wbs_dat_i[2] 0.000432089
7 *898:wbs_adr_i[2] *898:wbs_sel_i[1] 0
8 *898:wbs_adr_i[2] *898:wbs_stb_i 0.0108255
9 *898:wbs_adr_i[2] *838:11 0.000631408
10 *898:wbs_adr_i[2] *839:12 0.000709006
11 *898:wbs_adr_i[2] *844:15 0
12 *898:wbs_adr_i[2] *888:21 0.0031872
13 *811:7 *897:sram_dat_i[2] 0.00233322
14 *811:7 *897:sram_dat_i[3] 0
15 *811:7 *814:7 0
16 *811:7 *855:7 0.00321428
17 *811:7 *856:7 0
18 *811:9 *828:17 0
19 *811:9 *847:13 4.79496e-05
20 *811:9 *855:9 0.0187375
21 *724:9 *811:9 0.00182795
22 *732:9 *811:9 0.000886134
23 *783:15 *811:7 1.73281e-05
24 *798:13 *898:wbs_adr_i[2] 0.00199426
25 *806:17 *811:9 0.0122506
26 *808:21 *898:wbs_adr_i[2] 0.00217574
*RES
1 *897:sram_adr_o[2] *811:7 11.1527 
2 *811:7 *811:9 210.735 
3 *811:9 *898:wbs_adr_i[2] 21.0928 
*END

*D_NET *812 0.103974
*CONN
*I *898:wbs_adr_i[30] I *D CF_SRAM_1024x32_wb_wrapper
*I *897:sram_adr_o[30] O *D soc_sys
*CAP
1 *898:wbs_adr_i[30] 0.000829451
2 *897:sram_adr_o[30] 0.0125199
3 *812:9 0.0113458
4 *812:7 0.0105163
5 *812:5 0.0125199
6 *898:wbs_adr_i[30] *898:wbs_dat_i[29] 0
7 *898:wbs_adr_i[30] *898:wbs_dat_i[30] 0
8 *898:wbs_adr_i[30] *834:11 0.000168988
9 *812:5 *897:sram_dat_i[29] 0.00984904
10 *812:5 *897:sram_dat_i[30] 0.0143931
11 *812:5 *880:11 0.000154221
12 *812:5 *882:5 0.00437339
13 *812:9 *876:9 0.0253079
14 *109:21 *898:wbs_adr_i[30] 0.00199578
15 *805:17 *898:wbs_adr_i[30] 0
*RES
1 *897:sram_adr_o[30] *812:5 57.6739 
2 *812:5 *812:7 0.5 
3 *812:7 *812:9 296.415 
4 *812:9 *898:wbs_adr_i[30] 24.7375 
*END

*D_NET *813 0.100087
*CONN
*I *898:wbs_adr_i[31] I *D CF_SRAM_1024x32_wb_wrapper
*I *897:sram_adr_o[31] O *D soc_sys
*CAP
1 *898:wbs_adr_i[31] 2.32892e-05
2 *897:sram_adr_o[31] 0.000985401
3 *813:17 0.0188009
4 *813:15 0.0187776
5 *813:13 0.0129095
6 *813:11 0.0138949
7 *898:wbs_adr_i[31] *898:wbs_dat_i[22] 8.59615e-05
8 *813:11 *897:sram_dat_i[31] 0.0009865
9 *813:11 *882:5 0.000989727
10 *813:13 *897:sram_dat_i[31] 0.00243324
11 *813:13 *883:7 0.0298218
12 *813:17 *846:10 0
13 *107:21 *898:wbs_adr_i[31] 2.253e-05
14 *761:17 *813:11 0.000124743
15 *770:17 *813:11 0.000230352
*RES
1 *897:sram_adr_o[31] *813:11 6.67473 
2 *813:11 *813:13 52.5071 
3 *813:13 *813:15 0.5 
4 *813:15 *813:17 50.8567 
5 *813:17 *898:wbs_adr_i[31] 1.1254 
*END

*D_NET *814 0.0937576
*CONN
*I *898:wbs_adr_i[3] I *D CF_SRAM_1024x32_wb_wrapper
*I *897:sram_adr_o[3] O *D soc_sys
*CAP
1 *898:wbs_adr_i[3] 0.00316787
2 *897:sram_adr_o[3] 0.00336269
3 *814:9 0.00688317
4 *814:7 0.00707799
5 *898:wbs_adr_i[3] *898:wbs_adr_i[6] 0.000146215
6 *898:wbs_adr_i[3] *898:wbs_cyc_i 0.0103593
7 *898:wbs_adr_i[3] *898:wbs_dat_i[2] 0.000429592
8 *898:wbs_adr_i[3] *898:wbs_dat_i[3] 0
9 *898:wbs_adr_i[3] *898:wbs_sel_i[2] 0
10 *898:wbs_adr_i[3] *898:wbs_stb_i 4.31143e-05
11 *898:wbs_adr_i[3] *819:19 0.000435733
12 *898:wbs_adr_i[3] *819:21 0.00211255
13 *898:wbs_adr_i[3] *820:21 0.00230479
14 *898:wbs_adr_i[3] *828:15 3.46239e-05
15 *898:wbs_adr_i[3] *828:17 4.55864e-06
16 *898:wbs_adr_i[3] *835:11 0.00257439
17 *898:wbs_adr_i[3] *838:11 0.00139404
18 *898:wbs_adr_i[3] *888:21 0.00353918
19 *814:7 *897:sram_dat_i[3] 0.00314494
20 *814:7 *856:7 0.00287567
21 *814:9 *886:9 0.0190491
22 *898:wbs_adr_i[2] *898:wbs_adr_i[3] 0.01199
23 *541:33 *898:wbs_adr_i[3] 4.05129e-06
24 *713:9 *814:9 0
25 *725:9 *814:9 0.000596771
26 *756:9 *814:9 0.00140266
27 *800:9 *814:9 0.0106329
28 *806:17 *898:wbs_adr_i[3] 0.000172253
29 *808:19 *898:wbs_adr_i[3] 1.94811e-05
30 *811:7 *814:7 0
*RES
1 *897:sram_adr_o[3] *814:7 10.3952 
2 *814:7 *814:9 213.285 
3 *814:9 *898:wbs_adr_i[3] 27.0564 
*END

*D_NET *815 0.100367
*CONN
*I *898:wbs_adr_i[4] I *D CF_SRAM_1024x32_wb_wrapper
*I *897:sram_adr_o[4] O *D soc_sys
*CAP
1 *898:wbs_adr_i[4] 0.00540242
2 *897:sram_adr_o[4] 0.00318813
3 *815:9 0.00915575
4 *815:7 0.00694145
5 *898:wbs_adr_i[4] *898:wbs_adr_i[6] 1.81181e-05
6 *898:wbs_adr_i[4] *898:wbs_adr_i[7] 0.0148935
7 *898:wbs_adr_i[4] *898:wbs_dat_i[4] 0
8 *898:wbs_adr_i[4] *898:wbs_sel_i[3] 0
9 *898:wbs_adr_i[4] *833:11 0.00607061
10 *898:wbs_adr_i[4] *849:11 0
11 *815:7 *897:sram_dat_i[4] 0.00178619
12 *815:7 *897:sram_dat_i[5] 0
13 *815:7 *816:7 0
14 *815:7 *857:7 0.00214604
15 *815:7 *884:7 0.000336854
16 *815:7 *885:7 0.000420344
17 *815:9 *818:9 0.000249828
18 *815:9 *821:9 0.0178809
19 *815:9 *822:13 0
20 *815:9 *856:9 0.0193534
21 *40:13 *815:9 0.000528293
22 *142:26 *898:wbs_adr_i[4] 0.00126602
23 *714:9 *815:9 0
24 *726:9 *815:9 0.000917948
25 *791:19 *898:wbs_adr_i[4] 0.00207354
26 *797:21 *898:wbs_adr_i[4] 0.000387151
27 *802:13 *898:wbs_adr_i[4] 0.00235059
28 *804:13 *898:wbs_adr_i[4] 0.00239137
29 *806:21 *898:wbs_adr_i[4] 0.00260898
*RES
1 *897:sram_adr_o[4] *815:7 9.46293 
2 *815:7 *815:9 222.465 
3 *815:9 *898:wbs_adr_i[4] 29.031 
*END

*D_NET *816 0.0882284
*CONN
*I *898:wbs_adr_i[5] I *D CF_SRAM_1024x32_wb_wrapper
*I *897:sram_adr_o[5] O *D soc_sys
*CAP
1 *898:wbs_adr_i[5] 0.00390199
2 *897:sram_adr_o[5] 0.00282525
3 *816:9 0.00719903
4 *816:7 0.0061223
5 *898:wbs_adr_i[5] *898:wbs_dat_i[2] 0.0139562
6 *898:wbs_adr_i[5] *898:wbs_sel_i[0] 0.00469947
7 *898:wbs_adr_i[5] *839:12 0.000771111
8 *898:wbs_adr_i[5] *888:21 0.00338535
9 *816:7 *897:sram_dat_i[5] 0.00274998
10 *816:7 *885:7 0.00270296
11 *816:9 *822:13 0.0178979
12 *816:9 *825:21 3.48887e-05
13 *816:9 *870:13 0.018308
14 *816:9 *885:9 0.000625438
15 *107:21 *898:wbs_adr_i[5] 0.000691234
16 *540:50 *898:wbs_adr_i[5] 9.97912e-05
17 *714:9 *816:9 0.000916308
18 *726:9 *816:9 0.00134129
19 *815:7 *816:7 0
*RES
1 *897:sram_adr_o[5] *816:7 9.11333 
2 *816:7 *816:9 218.895 
3 *816:9 *898:wbs_adr_i[5] 25.2643 
*END

*D_NET *817 0.0916773
*CONN
*I *898:wbs_adr_i[6] I *D CF_SRAM_1024x32_wb_wrapper
*I *897:sram_adr_o[6] O *D soc_sys
*CAP
1 *898:wbs_adr_i[6] 0.00464261
2 *897:sram_adr_o[6] 0.00146799
3 *817:9 0.0090047
4 *817:7 0.00583008
5 *898:wbs_adr_i[6] *898:wbs_adr_i[7] 0.000702447
6 *898:wbs_adr_i[6] *898:wbs_cyc_i 0.0113791
7 *898:wbs_adr_i[6] *898:wbs_dat_i[6] 0
8 *898:wbs_adr_i[6] *835:11 0.0044624
9 *898:wbs_adr_i[6] *847:11 0.0010215
10 *898:wbs_adr_i[6] *849:11 0
11 *817:7 *897:sram_dat_i[6] 0.00131267
12 *817:7 *886:7 0.00131267
13 *817:9 *840:21 0
14 *817:9 *851:13 0.00995732
15 *897:adc_eof *898:wbs_adr_i[6] 0.000640897
16 *898:wbs_adr_i[1] *898:wbs_adr_i[6] 0.0121703
17 *898:wbs_adr_i[3] *898:wbs_adr_i[6] 0.000146215
18 *898:wbs_adr_i[4] *898:wbs_adr_i[6] 1.81181e-05
19 *65:21 *898:wbs_adr_i[6] 0.000545253
20 *541:27 *898:wbs_adr_i[6] 0.00123657
21 *649:13 *817:9 0.0196663
22 *652:33 *817:9 0.0021766
23 *657:25 *898:wbs_adr_i[6] 0.00126247
24 *688:9 *817:9 0.00255886
25 *791:19 *898:wbs_adr_i[6] 2.11417e-05
26 *794:19 *898:wbs_adr_i[6] 0.000141011
*RES
1 *897:sram_adr_o[6] *817:7 4.8016 
2 *817:7 *817:9 226.545 
3 *817:9 *898:wbs_adr_i[6] 33.4004 
*END

*D_NET *818 0.0966137
*CONN
*I *898:wbs_adr_i[7] I *D CF_SRAM_1024x32_wb_wrapper
*I *897:sram_adr_o[7] O *D soc_sys
*CAP
1 *898:wbs_adr_i[7] 0.00600408
2 *897:sram_adr_o[7] 0.00363628
3 *818:9 0.0126993
4 *818:7 0.0103315
5 *898:wbs_adr_i[7] *835:11 0.000152304
6 *898:wbs_adr_i[7] *847:11 0.0134394
7 *898:wbs_adr_i[7] *849:11 0
8 *898:wbs_adr_i[7] *850:11 0
9 *898:wbs_adr_i[7] *851:11 0
10 *898:wbs_adr_i[7] *853:11 0
11 *818:7 *897:sram_dat_i[6] 1.52121e-05
12 *818:7 *897:sram_dat_i[7] 0.00135091
13 *818:7 *886:7 0
14 *818:7 *887:7 0.00188635
15 *818:7 *888:21 0.00033223
16 *818:7 *889:7 0
17 *818:9 *856:9 0.0193102
18 *818:9 *871:9 0
19 *898:wbs_adr_i[1] *898:wbs_adr_i[7] 0.000332302
20 *898:wbs_adr_i[4] *898:wbs_adr_i[7] 0.0148935
21 *898:wbs_adr_i[6] *898:wbs_adr_i[7] 0.000702447
22 *40:13 *818:9 0.000933326
23 *113:21 *898:wbs_adr_i[7] 0.00260898
24 *677:9 *818:9 0.000575945
25 *689:9 *818:9 0.00279746
26 *714:9 *818:9 0
27 *744:9 *818:9 0.0019707
28 *807:13 *898:wbs_adr_i[7] 0.00239137
29 *815:9 *818:9 0.000249828
*RES
1 *897:sram_adr_o[7] *818:7 9.57947 
2 *818:7 *818:9 231.135 
3 *818:9 *898:wbs_adr_i[7] 31.0265 
*END

*D_NET *819 0.0908633
*CONN
*I *898:wbs_adr_i[8] I *D CF_SRAM_1024x32_wb_wrapper
*I *897:sram_adr_o[8] O *D soc_sys
*CAP
1 *898:wbs_adr_i[8] 0.000152409
2 *897:sram_adr_o[8] 0.000480484
3 *819:21 0.00352067
4 *819:19 0.0055202
5 *819:9 0.0104264
6 *819:7 0.00875496
7 *898:wbs_adr_i[8] *898:wbs_dat_i[8] 0
8 *898:wbs_adr_i[8] *851:11 0
9 *819:7 *897:sram_dat_i[8] 0.000453588
10 *819:7 *888:21 0.000461308
11 *819:19 *898:wbs_dat_i[2] 0.00205822
12 *819:19 *898:wbs_stb_i 0.00311481
13 *819:19 *847:13 0.000119216
14 *819:19 *888:21 0.000410744
15 *819:21 *820:21 0.0156866
16 *898:wbs_adr_i[3] *819:19 0.000435733
17 *898:wbs_adr_i[3] *819:21 0.00211255
18 *67:231 *819:9 0.00040503
19 *67:249 *819:9 0.00853764
20 *103:39 *819:9 0.00178223
21 *142:26 *819:21 0
22 *540:50 *819:19 0.000232172
23 *541:35 *819:21 0.00974434
24 *647:31 *819:19 0.000501852
25 *650:35 *819:19 0.000277862
26 *650:37 *819:19 0.000202771
27 *651:31 *819:19 0.000276129
28 *651:33 *819:19 0.000221223
29 *656:29 *819:19 0.00143548
30 *673:11 *819:9 0.00303415
31 *716:9 *819:9 0.000356294
32 *727:9 *819:9 0.000929691
33 *743:9 *819:9 0
34 *748:9 *819:9 0.00805969
35 *763:9 *819:9 0
36 *793:13 *819:19 0.000117872
37 *798:13 *819:21 6.00027e-05
38 *808:19 *819:19 0.000915391
39 *808:21 *819:21 6.563e-05
*RES
1 *897:sram_adr_o[8] *819:7 1.94653 
2 *819:7 *819:9 230.115 
3 *819:9 *819:19 13.9264 
4 *819:19 *819:21 145.005 
5 *819:21 *898:wbs_adr_i[8] 3.965 
*END

*D_NET *820 0.091503
*CONN
*I *898:wbs_adr_i[9] I *D CF_SRAM_1024x32_wb_wrapper
*I *897:sram_adr_o[9] O *D soc_sys
*CAP
1 *898:wbs_adr_i[9] 0.000132834
2 *897:sram_adr_o[9] 0.00417472
3 *820:21 0.00238258
4 *820:19 0.00241607
5 *820:9 0.0081041
6 *820:7 0.0121125
7 *898:wbs_adr_i[9] *898:wbs_dat_i[9] 0
8 *898:wbs_adr_i[9] *852:9 0
9 *820:7 *897:sram_dat_i[9] 0.00244952
10 *820:7 *860:7 0
11 *820:7 *889:7 0.00307805
12 *820:9 *849:13 0
13 *820:9 *864:9 0.0206023
14 *820:19 *832:19 0.000256934
15 *820:19 *864:23 0.000257375
16 *898:wbs_adr_i[3] *820:21 0.00230479
17 *142:26 *820:21 0
18 *683:9 *820:9 0
19 *798:13 *820:21 0.0162505
20 *806:15 *820:9 0.00129409
21 *819:21 *820:21 0.0156866
*RES
1 *897:sram_adr_o[9] *820:7 11.7936 
2 *820:7 *820:9 230.242 
3 *820:9 *820:19 10.29 
4 *820:19 *820:21 147.42 
5 *820:21 *898:wbs_adr_i[9] 3.71 
*END

*D_NET *821 0.0748786
*CONN
*I *898:wbs_cyc_i I *D CF_SRAM_1024x32_wb_wrapper
*I *897:sram_cyc_o O *D soc_sys
*CAP
1 *898:wbs_cyc_i 0.00237823
2 *897:sram_cyc_o 0.00374704
3 *821:9 0.00791207
4 *821:7 0.00928088
5 *898:wbs_cyc_i *898:wbs_stb_i 1.99593e-05
6 *821:7 *897:sram_dat_i[0] 0
7 *821:7 *858:7 0.0018221
8 *821:9 *822:13 0
9 *897:sram_ack_i *821:7 0.00112896
10 *898:wbs_adr_i[3] *898:wbs_cyc_i 0.0103593
11 *898:wbs_adr_i[6] *898:wbs_cyc_i 0.0113791
12 *40:13 *821:9 0.000602531
13 *540:56 *821:9 4.51693e-05
14 *541:27 *898:wbs_cyc_i 0.000967946
15 *541:35 *898:wbs_cyc_i 0.00217574
16 *690:7 *821:7 0.000648096
17 *714:9 *821:9 0.00354421
18 *726:9 *821:9 0.000986404
19 *788:11 *898:wbs_cyc_i 0
20 *815:9 *821:9 0.0178809
*RES
1 *897:sram_cyc_o *821:7 9.40467 
2 *821:7 *821:9 200.535 
3 *821:9 *898:wbs_cyc_i 21.004 
*END

*D_NET *822 0.085165
*CONN
*I *897:sram_dat_i[0] I *D soc_sys
*I *898:wbs_dat_o[0] O *D CF_SRAM_1024x32_wb_wrapper
*CAP
1 *897:sram_dat_i[0] 0.00383151
2 *898:wbs_dat_o[0] 0.00276416
3 *822:13 0.00921426
4 *822:11 0.00814691
5 *897:sram_dat_i[0] *854:7 0.000361648
6 *897:sram_dat_i[0] *858:7 0
7 *897:sram_dat_i[0] *859:7 0.00114688
8 *897:sram_dat_i[0] *891:7 0.000646921
9 *822:11 *898:wbs_dat_i[0] 0
10 *822:11 *898:wbs_dat_i[1] 0.0125044
11 *822:11 *849:11 0.000231168
12 *822:13 *870:13 0.000359757
13 *822:13 *885:9 1.82571e-05
14 *898:wbs_adr_i[0] *822:11 0.0125362
15 *898:wbs_adr_i[1] *822:11 0
16 *540:56 *822:13 0.000127124
17 *650:35 *897:sram_dat_i[0] 0.000254124
18 *651:31 *897:sram_dat_i[0] 0.000102788
19 *714:9 *822:13 0.00864985
20 *726:9 *822:13 0.00165404
21 *789:7 *897:sram_dat_i[0] 0.000169128
22 *791:21 *822:11 0.00211255
23 *792:21 *822:11 0.00230479
24 *794:19 *822:13 8.08514e-05
25 *795:19 *822:13 4.98194e-05
26 *800:7 *897:sram_dat_i[0] 0
27 *815:9 *822:13 0
28 *816:9 *822:13 0.0178979
29 *821:7 *897:sram_dat_i[0] 0
30 *821:9 *822:13 0
*RES
1 *898:wbs_dat_o[0] *822:11 27.2837 
2 *822:11 *822:13 209.205 
3 *822:13 *897:sram_dat_i[0] 9.1716 
*END

*D_NET *823 0.109029
*CONN
*I *897:sram_dat_i[10] I *D soc_sys
*I *898:wbs_dat_o[10] O *D CF_SRAM_1024x32_wb_wrapper
*CAP
1 *897:sram_dat_i[10] 0.00204997
2 *898:wbs_dat_o[10] 0.00838464
3 *823:17 0.00616879
4 *823:15 0.0125035
5 *897:sram_dat_i[10] *860:7 0.00178492
6 *897:sram_dat_i[10] *890:7 0.000432384
7 *823:15 *898:wbs_dat_i[10] 0.00349175
8 *823:15 *898:wbs_dat_i[11] 0.00266867
9 *823:15 *898:wbs_sel_i[1] 0.0104216
10 *823:15 *824:19 0.00217674
11 *823:15 *825:9 0.00295305
12 *823:15 *826:9 0.000518629
13 *823:15 *826:19 0.00367633
14 *823:15 *827:9 0.000101633
15 *823:15 *828:9 0.000340133
16 *823:15 *844:15 0.000219363
17 *823:15 *848:21 0.000483294
18 *823:15 *850:11 0.000279725
19 *823:15 *853:11 0
20 *823:15 *861:19 0.00116182
21 *823:15 *864:25 0.000478109
22 *823:15 *866:19 0.00145183
23 *823:15 *868:19 0.000321287
24 *823:17 *868:9 0.0220932
25 *823:17 *887:9 0.0211077
26 *898:wbs_adr_i[11] *823:15 0
27 *651:31 *823:17 0.00228158
28 *686:9 *823:17 0.000554907
29 *790:17 *897:sram_dat_i[10] 0.000923936
*RES
1 *898:wbs_dat_o[10] *823:15 45.9024 
2 *823:15 *823:17 250.515 
3 *823:17 *897:sram_dat_i[10] 6.31653 
*END

*D_NET *824 0.135469
*CONN
*I *897:sram_dat_i[11] I *D soc_sys
*I *898:wbs_dat_o[11] O *D CF_SRAM_1024x32_wb_wrapper
*CAP
1 *897:sram_dat_i[11] 0.0145703
2 *898:wbs_dat_o[11] 0.0106866
3 *824:19 0.0252569
4 *897:sram_dat_i[11] *840:21 0.00248114
5 *897:sram_dat_i[11] *852:13 0.00106786
6 *897:sram_dat_i[11] *860:7 0.000230629
7 *897:sram_dat_i[11] *861:7 0.00143483
8 *897:sram_dat_i[11] *865:9 0.00148356
9 *897:sram_dat_i[11] *872:9 0.0015942
10 *897:sram_dat_i[11] *891:9 0.00106786
11 *824:19 *898:wbs_dat_i[11] 0.00349677
12 *824:19 *898:wbs_dat_i[23] 3.99991e-05
13 *824:19 *898:wbs_dat_i[3] 0.00278502
14 *824:19 *898:wbs_sel_i[1] 0.0010707
15 *824:19 *825:19 0.000348995
16 *824:19 *826:19 0.000379215
17 *824:19 *829:19 0.000369003
18 *824:19 *844:15 0.00359977
19 *824:19 *848:21 0.0040852
20 *824:19 *850:11 0.00453008
21 *824:19 *853:11 0.00439705
22 *824:19 *861:19 0.00388816
23 *824:19 *865:19 0.000305691
24 *898:wbs_adr_i[11] *824:19 0
25 *898:wbs_adr_i[12] *824:19 0
26 *141:13 *824:19 0.000301771
27 *143:39 *824:19 0.000284109
28 *652:33 *897:sram_dat_i[11] 0.00403903
29 *658:21 *897:sram_dat_i[11] 0
30 *719:9 *897:sram_dat_i[11] 0.0115706
31 *740:11 *897:sram_dat_i[11] 0.0098349
32 *769:9 *897:sram_dat_i[11] 0.000380362
33 *788:11 *824:19 0.00128728
34 *790:17 *824:19 0.0155247
35 *791:7 *897:sram_dat_i[11] 0.000900347
36 *823:15 *824:19 0.00217674
*RES
1 *898:wbs_dat_o[11] *824:19 9.59993 
2 *824:19 *897:sram_dat_i[11] 47.5959 
*END

*D_NET *825 0.0977695
*CONN
*I *897:sram_dat_i[12] I *D soc_sys
*I *898:wbs_dat_o[12] O *D CF_SRAM_1024x32_wb_wrapper
*CAP
1 *897:sram_dat_i[12] 0.00282748
2 *898:wbs_dat_o[12] 0.000872382
3 *825:21 0.0076345
4 *825:19 0.00567895
5 *825:9 0.00669925
6 *825:7 0.00669971
7 *897:sram_dat_i[12] *860:7 0
8 *897:sram_dat_i[12] *861:7 0.000640392
9 *897:sram_dat_i[12] *862:7 0.00241109
10 *825:7 *898:wbs_dat_i[12] 0
11 *825:9 *898:wbs_sel_i[1] 0.000504265
12 *825:9 *826:9 0.0178082
13 *825:19 *898:wbs_dat_i[3] 0.000210012
14 *825:19 *849:11 1.90963e-05
15 *825:19 *853:11 0.00247142
16 *825:21 *860:9 0.0100567
17 *825:21 *885:9 0.0203034
18 *898:wbs_adr_i[0] *825:19 0.000213696
19 *898:wbs_adr_i[13] *825:7 0
20 *110:21 *825:9 0
21 *680:9 *825:21 0.00494504
22 *714:9 *825:21 0
23 *726:9 *825:21 0.000156716
24 *738:9 *825:21 0.0008248
25 *761:15 *897:sram_dat_i[12] 0.000660075
26 *792:7 *897:sram_dat_i[12] 0.00111931
27 *792:19 *825:19 0.00167604
28 *816:9 *825:21 3.48887e-05
29 *823:15 *825:9 0.00295305
30 *824:19 *825:19 0.000348995
*RES
1 *898:wbs_dat_o[12] *825:7 14.42 
2 *825:7 *825:9 161.22 
3 *825:9 *825:19 10.0596 
4 *825:19 *825:21 252.045 
5 *825:21 *897:sram_dat_i[12] 8.93853 
*END

*D_NET *826 0.101544
*CONN
*I *897:sram_dat_i[13] I *D soc_sys
*I *898:wbs_dat_o[13] O *D CF_SRAM_1024x32_wb_wrapper
*CAP
1 *897:sram_dat_i[13] 0.000693334
2 *898:wbs_dat_o[13] 0.000823956
3 *826:21 0.00913819
4 *826:19 0.010262
5 *826:9 0.00443583
6 *826:7 0.00344266
7 *897:sram_dat_i[13] *863:7 0.000712431
8 *826:7 *898:wbs_dat_i[13] 0
9 *826:7 *898:wbs_dat_i[14] 0
10 *826:9 *898:wbs_sel_i[1] 0.00248434
11 *826:9 *864:25 0.0189368
12 *826:19 *898:wbs_sel_i[1] 0.000250397
13 *826:19 *840:19 0.000170461
14 *826:19 *861:19 0.000598104
15 *826:19 *868:19 1.41981e-05
16 *898:wbs_adr_i[14] *826:7 0
17 *40:21 *826:21 0.00583584
18 *110:21 *826:9 0
19 *143:39 *826:19 0.00152775
20 *733:9 *826:21 3.48887e-05
21 *734:9 *826:21 0.000488502
22 *745:9 *826:21 0.00976792
23 *761:15 *826:21 0.000153582
24 *772:11 *826:21 0.000305078
25 *779:9 *826:21 0.00699107
26 *788:11 *826:19 0.0012538
27 *790:17 *826:19 0.000128196
28 *793:7 *897:sram_dat_i[13] 0.000712431
29 *823:15 *826:9 0.000518629
30 *823:15 *826:19 0.00367633
31 *824:19 *826:19 0.000379215
32 *825:9 *826:9 0.0178082
*RES
1 *898:wbs_dat_o[13] *826:7 14.165 
2 *826:7 *826:9 171.57 
3 *826:9 *826:19 13.3801 
4 *826:19 *826:21 259.185 
5 *826:21 *897:sram_dat_i[13] 2.704 
*END

*D_NET *827 0.113211
*CONN
*I *897:sram_dat_i[14] I *D soc_sys
*I *898:wbs_dat_o[14] O *D CF_SRAM_1024x32_wb_wrapper
*CAP
1 *897:sram_dat_i[14] 0.00226904
2 *898:wbs_dat_o[14] 0.000761797
3 *827:21 0.00693626
4 *827:19 0.00508587
5 *827:9 0.00357881
6 *827:7 0.00392195
7 *897:sram_dat_i[14] *863:7 0.00052244
8 *897:sram_dat_i[14] *864:7 0.00205586
9 *827:7 *898:wbs_dat_i[14] 0
10 *827:7 *898:wbs_dat_i[15] 0
11 *827:9 *828:9 0.0201131
12 *827:9 *844:15 0.000370327
13 *827:9 *848:21 0.000161545
14 *827:9 *865:21 0.0217259
15 *827:19 *844:17 6.5733e-05
16 *827:19 *850:11 0.000207862
17 *827:19 *853:11 0.000176888
18 *827:19 *865:19 0.000250646
19 *827:19 *890:9 0
20 *827:21 *857:9 0.0102371
21 *827:21 *866:9 0.0228093
22 *827:21 *888:21 0.00188543
23 *898:wbs_adr_i[15] *827:7 0
24 *685:9 *827:21 0.00499516
25 *737:11 *827:21 0.000897897
26 *788:11 *827:9 0.00224186
27 *792:19 *827:19 0.00081652
28 *794:7 *897:sram_dat_i[14] 0.00102239
29 *823:15 *827:9 0.000101633
*RES
1 *898:wbs_dat_o[14] *827:7 13.4 
2 *827:7 *827:9 197.1 
3 *827:9 *827:19 6.5341 
4 *827:19 *827:21 258.165 
5 *827:21 *897:sram_dat_i[14] 7.13227 
*END

*D_NET *828 0.111091
*CONN
*I *897:sram_dat_i[15] I *D soc_sys
*I *898:wbs_dat_o[15] O *D CF_SRAM_1024x32_wb_wrapper
*CAP
1 *897:sram_dat_i[15] 0.00330106
2 *898:wbs_dat_o[15] 0.000778941
3 *828:17 0.00986974
4 *828:15 0.00719744
5 *828:9 0.00354606
6 *828:7 0.00369625
7 *897:sram_dat_i[15] *864:7 0.00101114
8 *897:sram_dat_i[15] *865:7 0.000445655
9 *828:7 *898:wbs_dat_i[15] 0
10 *828:7 *898:wbs_dat_i[16] 0
11 *828:9 *831:9 7.50114e-05
12 *828:9 *844:15 0.000404026
13 *828:9 *848:21 0.000148924
14 *828:9 *864:25 0.0193556
15 *828:9 *865:21 0.000225511
16 *828:15 *831:13 0.000880924
17 *828:15 *855:9 0
18 *828:15 *863:19 1.73654e-05
19 *828:17 *831:13 0.000263094
20 *828:17 *847:13 0
21 *828:17 *863:9 0.0220256
22 *898:wbs_adr_i[16] *828:7 0
23 *898:wbs_adr_i[3] *828:15 3.46239e-05
24 *898:wbs_adr_i[3] *828:17 4.55864e-06
25 *67:231 *897:sram_dat_i[15] 0.00526386
26 *110:21 *828:9 0
27 *541:33 *828:15 1.92979e-05
28 *721:9 *828:17 0.00179646
29 *742:9 *828:17 0
30 *778:9 *828:17 0.00185489
31 *788:11 *828:9 0.002121
32 *793:9 *828:17 0
33 *795:7 *897:sram_dat_i[15] 0.000983146
34 *796:7 *897:sram_dat_i[15] 5.82544e-05
35 *806:17 *828:15 0
36 *806:17 *828:17 0.00521875
37 *808:19 *828:15 4.04634e-05
38 *811:9 *828:17 0
39 *823:15 *828:9 0.000340133
40 *827:9 *828:9 0.0201131
*RES
1 *898:wbs_dat_o[15] *828:7 13.655 
2 *828:7 *828:9 187.44 
3 *828:9 *828:15 14.1575 
4 *828:15 *828:17 252.045 
5 *828:17 *897:sram_dat_i[15] 10.9196 
*END

*D_NET *829 0.120677
*CONN
*I *897:sram_dat_i[16] I *D soc_sys
*I *898:wbs_dat_o[16] O *D CF_SRAM_1024x32_wb_wrapper
*CAP
1 *897:sram_dat_i[16] 0.00121667
2 *898:wbs_dat_o[16] 0.000659458
3 *829:21 0.00588622
4 *829:19 0.00515384
5 *829:9 0.00385187
6 *829:7 0.00402703
7 *897:sram_dat_i[16] *866:7 0.00136637
8 *829:7 *898:wbs_dat_i[16] 0
9 *829:7 *898:wbs_dat_i[17] 0
10 *829:9 *830:9 0.000679442
11 *829:9 *832:9 0.0206693
12 *829:9 *836:9 0.0208174
13 *829:9 *837:9 0.000349145
14 *829:9 *850:11 0.00287299
15 *829:9 *865:21 0.000504204
16 *829:19 *848:21 0.000988697
17 *829:19 *850:11 0.000717382
18 *829:19 *865:19 0.000484836
19 *829:21 *851:13 0.0209601
20 *829:21 *869:9 0.000903676
21 *898:wbs_adr_i[17] *829:7 0
22 *141:13 *829:19 0.000202165
23 *143:47 *829:9 0.000784267
24 *646:18 *829:21 0.0161174
25 *650:35 *829:21 0.00203394
26 *684:9 *829:21 0.00556691
27 *688:9 *829:21 0.00133795
28 *783:15 *829:21 0.000221881
29 *788:11 *829:19 0.000568155
30 *796:7 *897:sram_dat_i[16] 0.00136637
31 *824:19 *829:19 0.000369003
*RES
1 *898:wbs_dat_o[16] *829:7 12.125 
2 *829:7 *829:9 212.28 
3 *829:9 *829:19 6.69383 
4 *829:19 *829:21 265.815 
5 *829:21 *897:sram_dat_i[16] 4.6268 
*END

*D_NET *830 0.114815
*CONN
*I *897:sram_dat_i[17] I *D soc_sys
*I *898:wbs_dat_o[17] O *D CF_SRAM_1024x32_wb_wrapper
*CAP
1 *897:sram_dat_i[17] 0.00320634
2 *898:wbs_dat_o[17] 0.000700795
3 *830:13 0.00886019
4 *830:11 0.00565386
5 *830:9 0.00298755
6 *830:7 0.00368835
7 *897:sram_dat_i[17] *866:7 0.0005697
8 *897:sram_dat_i[17] *867:7 0.00313563
9 *830:7 *898:wbs_dat_i[17] 0
10 *830:7 *898:wbs_dat_i[18] 0
11 *830:9 *831:9 0.0218469
12 *830:9 *832:9 0.0212399
13 *830:9 *844:15 0.000118286
14 *830:9 *848:21 0.00256734
15 *830:9 *850:11 0.00012905
16 *830:9 *865:21 0.000324422
17 *830:13 *862:9 0.0219414
18 *830:13 *871:9 0.00970939
19 *682:9 *830:13 0.0059815
20 *713:9 *830:13 0.000469137
21 *796:7 *897:sram_dat_i[17] 0
22 *797:7 *897:sram_dat_i[17] 0.0010061
23 *829:9 *830:9 0.000679442
*RES
1 *898:wbs_dat_o[17] *830:7 12.635 
2 *830:7 *830:9 203.31 
3 *830:9 *830:11 2 
4 *830:11 *830:13 268.747 
5 *830:13 *897:sram_dat_i[17] 9.92907 
*END

*D_NET *831 0.125414
*CONN
*I *897:sram_dat_i[18] I *D soc_sys
*I *898:wbs_dat_o[18] O *D CF_SRAM_1024x32_wb_wrapper
*CAP
1 *897:sram_dat_i[18] 0.00319884
2 *898:wbs_dat_o[18] 0.000695137
3 *831:13 0.00750236
4 *831:11 0.00430351
5 *831:9 0.00327592
6 *831:7 0.00397106
7 *897:sram_dat_i[18] *868:7 0.00190953
8 *831:7 *898:wbs_dat_i[18] 0
9 *831:7 *898:wbs_dat_i[19] 0
10 *831:7 *845:27 6.02846e-05
11 *831:9 *832:9 0.000339053
12 *831:9 *844:15 0.00262903
13 *831:9 *848:21 0.000298808
14 *831:9 *850:11 0.000119028
15 *831:9 *865:21 0.0205189
16 *831:13 *863:9 0.0220236
17 *831:13 *863:19 0.000228278
18 *898:wbs_adr_i[19] *831:7 0
19 *721:9 *831:13 0.0033917
20 *742:9 *831:13 0
21 *798:7 *897:sram_dat_i[18] 0.00341888
22 *799:5 *897:sram_dat_i[18] 0.000729347
23 *802:9 *831:13 0.0237347
24 *828:9 *831:9 7.50114e-05
25 *828:15 *831:13 0.000880924
26 *828:17 *831:13 0.000263094
27 *830:9 *831:9 0.0218469
*RES
1 *898:wbs_dat_o[18] *831:7 12.89 
2 *831:7 *831:9 203.31 
3 *831:9 *831:11 2 
4 *831:11 *831:13 272.062 
5 *831:13 *897:sram_dat_i[18] 10.8031 
*END

*D_NET *832 0.127545
*CONN
*I *897:sram_dat_i[19] I *D soc_sys
*I *898:wbs_dat_o[19] O *D CF_SRAM_1024x32_wb_wrapper
*CAP
1 *897:sram_dat_i[19] 0.00374666
2 *898:wbs_dat_o[19] 0.000688531
3 *832:21 0.00741531
4 *832:19 0.00426258
5 *832:9 0.00367409
6 *832:7 0.0037687
7 *897:sram_dat_i[19] *869:7 0.00125502
8 *832:7 *898:wbs_dat_i[19] 0
9 *832:7 *898:wbs_dat_i[20] 0
10 *832:9 *836:9 0.00101449
11 *832:9 *844:15 0.00012905
12 *832:9 *848:21 0.00280097
13 *832:9 *850:11 0.000118286
14 *832:19 *836:15 0
15 *832:19 *864:23 0.000674254
16 *832:21 *836:17 0.0234987
17 *732:9 *832:21 0.000869031
18 *796:9 *832:19 0.000614563
19 *799:5 *897:sram_dat_i[19] 0.00347881
20 *801:15 *897:sram_dat_i[19] 0.000995572
21 *804:9 *832:21 0.023499
22 *806:15 *832:21 0.00253661
23 *820:19 *832:19 0.000256934
24 *829:9 *832:9 0.0206693
25 *830:9 *832:9 0.0212399
26 *831:9 *832:9 0.000339053
*RES
1 *898:wbs_dat_o[19] *832:7 12.38 
2 *832:7 *832:9 202.965 
3 *832:9 *832:19 19.32 
4 *832:19 *832:21 262.883 
5 *832:21 *897:sram_dat_i[19] 11.5023 
*END

*D_NET *833 0.0947344
*CONN
*I *897:sram_dat_i[1] I *D soc_sys
*I *898:wbs_dat_o[1] O *D CF_SRAM_1024x32_wb_wrapper
*CAP
1 *897:sram_dat_i[1] 0.00221981
2 *898:wbs_dat_o[1] 0.00407364
3 *833:13 0.00541229
4 *833:11 0.00726612
5 *897:sram_dat_i[1] *870:11 0.00371141
6 *833:11 *898:wbs_dat_i[1] 0.0131506
7 *833:11 *898:wbs_sel_i[1] 0
8 *833:11 *849:11 6.60704e-05
9 *833:13 *844:17 0.0188641
10 *833:13 *853:13 0.0188653
11 *833:13 *861:19 0.00359169
12 *898:wbs_adr_i[0] *833:11 0.000186187
13 *898:wbs_adr_i[4] *833:11 0.00607061
14 *772:15 *897:sram_dat_i[1] 0.00235925
15 *791:19 *833:11 0.00289842
16 *794:21 *833:11 0.00223083
17 *795:21 *833:11 0.00243384
18 *797:19 *833:11 0.000135515
19 *800:7 *897:sram_dat_i[1] 0.00119876
*RES
1 *898:wbs_dat_o[1] *833:11 28.4196 
2 *833:11 *833:13 212.265 
3 *833:13 *897:sram_dat_i[1] 8.18107 
*END

*D_NET *834 0.100417
*CONN
*I *897:sram_dat_i[20] I *D soc_sys
*I *898:wbs_dat_o[20] O *D CF_SRAM_1024x32_wb_wrapper
*CAP
1 *897:sram_dat_i[20] 0.0179246
2 *898:wbs_dat_o[20] 0.0019682
3 *834:15 0.0179246
4 *834:13 0.0147462
5 *834:11 0.0167144
6 *897:sram_dat_i[20] *897:sram_dat_i[21] 0.00430063
7 *897:sram_dat_i[20] *871:7 0.00294451
8 *834:11 *898:wbs_dat_i[25] 0.00242608
9 *834:11 *898:wbs_dat_i[26] 0.0038269
10 *834:11 *838:11 0.000971412
11 *834:11 *839:12 0.00296507
12 *834:11 *841:29 0.000646772
13 *834:11 *842:19 0.000535802
14 *834:11 *843:14 0.000455849
15 *834:11 *880:27 4.05129e-06
16 *834:11 *883:19 3.99991e-05
17 *898:wbs_adr_i[19] *834:11 0.000416966
18 *898:wbs_adr_i[29] *834:11 3.99991e-05
19 *898:wbs_adr_i[30] *834:11 0.000168988
20 *109:21 *834:11 0.000118286
21 *114:29 *834:11 0.00012905
22 *799:5 *897:sram_dat_i[20] 0
23 *801:15 *897:sram_dat_i[20] 0.0105664
24 *803:5 *897:sram_dat_i[20] 0
25 *809:17 *834:11 0.000582261
*RES
1 *898:wbs_dat_o[20] *834:11 12.1468 
2 *834:11 *834:13 267.855 
3 *834:13 *834:15 0.5 
4 *834:15 *897:sram_dat_i[20] 56.9164 
*END

*D_NET *835 0.0943707
*CONN
*I *897:sram_dat_i[21] I *D soc_sys
*I *898:wbs_dat_o[21] O *D CF_SRAM_1024x32_wb_wrapper
*CAP
1 *897:sram_dat_i[21] 0.00717152
2 *898:wbs_dat_o[21] 0.00413739
3 *835:15 0.0240892
4 *835:11 0.0210551
5 *897:sram_dat_i[21] *871:7 0.00493174
6 *897:sram_dat_i[21] *872:7 0.000504465
7 *835:11 *898:wbs_dat_i[23] 0.0077589
8 *835:11 *838:11 0.00451919
9 *835:11 *842:15 3.64367e-05
10 *835:11 *845:27 0.000880854
11 *835:11 *883:19 2.03593e-05
12 *897:sram_dat_i[20] *897:sram_dat_i[21] 0.00430063
13 *898:wbs_adr_i[19] *835:11 0.00154755
14 *898:wbs_adr_i[22] *835:11 0
15 *898:wbs_adr_i[3] *835:11 0.00257439
16 *898:wbs_adr_i[6] *835:11 0.0044624
17 *898:wbs_adr_i[7] *835:11 0.000152304
18 *142:26 *835:11 0.000101314
19 *748:9 *897:sram_dat_i[21] 5.59194e-05
20 *763:9 *897:sram_dat_i[21] 5.24319e-05
21 *802:7 *897:sram_dat_i[21] 0.00601855
22 *803:5 *897:sram_dat_i[21] 0
*RES
1 *898:wbs_dat_o[21] *835:11 24.1795 
2 *835:11 *835:15 46.3609 
3 *835:15 *897:sram_dat_i[21] 29.3781 
*END

*D_NET *836 0.132734
*CONN
*I *897:sram_dat_i[22] I *D soc_sys
*I *898:wbs_dat_o[22] O *D CF_SRAM_1024x32_wb_wrapper
*CAP
1 *897:sram_dat_i[22] 0.00273052
2 *898:wbs_dat_o[22] 0.000662315
3 *836:17 0.00680553
4 *836:15 0.0046108
5 *836:9 0.00408633
6 *836:7 0.00421286
7 *897:sram_dat_i[22] *873:5 0.000175909
8 *897:sram_dat_i[22] *874:15 0.0065753
9 *836:9 *837:9 0.02424
10 *836:9 *850:11 0.00313443
11 *898:wbs_adr_i[22] *836:7 0
12 *898:wbs_adr_i[23] *836:7 0
13 *732:9 *836:17 0.00112261
14 *742:9 *836:17 0.0126514
15 *792:19 *836:15 0.000168105
16 *793:9 *836:17 0.00433513
17 *793:13 *836:15 0.00029659
18 *793:13 *836:17 0.00422976
19 *796:9 *836:15 2.7493e-05
20 *803:5 *897:sram_dat_i[22] 0.00365539
21 *804:9 *836:15 0.000489465
22 *804:9 *836:17 0.000467472
23 *806:15 *836:17 0.00272594
24 *829:9 *836:9 0.0208174
25 *832:9 *836:9 0.00101449
26 *832:19 *836:15 0
27 *832:21 *836:17 0.0234987
*RES
1 *898:wbs_dat_o[22] *836:7 11.87 
2 *836:7 *836:9 219.87 
3 *836:9 *836:15 13.3925 
4 *836:15 *836:17 272.445 
5 *836:17 *897:sram_dat_i[22] 11.444 
*END

*D_NET *837 0.13225
*CONN
*I *897:sram_dat_i[23] I *D soc_sys
*I *898:wbs_dat_o[23] O *D CF_SRAM_1024x32_wb_wrapper
*CAP
1 *897:sram_dat_i[23] 0.00268892
2 *898:wbs_dat_o[23] 0.000627206
3 *837:13 0.00748264
4 *837:11 0.00479372
5 *837:9 0.00347242
6 *837:7 0.00409963
7 *897:sram_dat_i[23] *897:sram_dat_i[24] 0.00531641
8 *897:sram_dat_i[23] *874:15 4.68079e-05
9 *837:7 *898:wbs_dat_i[23] 0
10 *837:7 *841:29 5.63183e-05
11 *837:9 *853:11 0.00299127
12 *837:13 *867:9 0.00956234
13 *837:13 *867:15 0.00182803
14 *837:13 *886:9 0.000213271
15 *898:wbs_adr_i[23] *837:7 0
16 *898:wbs_adr_i[24] *837:7 0
17 *74:79 *897:sram_dat_i[23] 1.83008e-05
18 *118:67 *897:sram_dat_i[23] 0.000254943
19 *143:47 *837:9 0.0254077
20 *690:9 *837:13 0.00712165
21 *721:9 *837:13 0.000767362
22 *725:9 *837:13 0.0024513
23 *804:7 *897:sram_dat_i[23] 0.00334703
24 *805:11 *897:sram_dat_i[23] 9.89456e-05
25 *805:13 *897:sram_dat_i[23] 2.1352e-05
26 *807:9 *837:13 0.0249934
27 *829:9 *837:9 0.000349145
28 *836:9 *837:9 0.02424
*RES
1 *898:wbs_dat_o[23] *837:7 11.615 
2 *837:7 *837:9 230.565 
3 *837:9 *837:11 2 
4 *837:11 *837:13 286.087 
5 *837:13 *897:sram_dat_i[23] 10.57 
*END

*D_NET *838 0.125737
*CONN
*I *897:sram_dat_i[24] I *D soc_sys
*I *898:wbs_dat_o[24] O *D CF_SRAM_1024x32_wb_wrapper
*CAP
1 *897:sram_dat_i[24] 0.00558012
2 *898:wbs_dat_o[24] 0.00720755
3 *838:15 0.0168135
4 *838:11 0.0184409
5 *897:sram_dat_i[24] *873:5 0.00282669
6 *897:sram_dat_i[24] *875:11 0.000398191
7 *838:11 *839:12 0.00156411
8 *838:11 *841:29 0.00185936
9 *838:11 *842:19 0.00900121
10 *838:11 *845:27 0.000907403
11 *838:11 *883:19 4.60198e-05
12 *838:11 *888:21 0.000293372
13 *838:15 *839:16 0.0257088
14 *897:sram_dat_i[23] *897:sram_dat_i[24] 0.00531641
15 *898:wbs_adr_i[19] *838:11 0.00337069
16 *898:wbs_adr_i[24] *838:11 0
17 *898:wbs_adr_i[25] *838:11 0
18 *898:wbs_adr_i[29] *838:11 4.32417e-05
19 *898:wbs_adr_i[2] *838:11 0.000631408
20 *898:wbs_adr_i[3] *838:11 0.00139404
21 *74:79 *897:sram_dat_i[24] 1.79809e-05
22 *748:9 *897:sram_dat_i[24] 3.28052e-05
23 *763:9 *897:sram_dat_i[24] 6.11873e-05
24 *798:13 *838:11 0.000118286
25 *804:7 *897:sram_dat_i[24] 0.000236878
26 *805:11 *897:sram_dat_i[24] 0.000769291
27 *805:13 *897:sram_dat_i[24] 0.0174778
28 *808:21 *838:11 0.00012905
29 *834:11 *838:11 0.000971412
30 *835:11 *838:11 0.00451919
*RES
1 *898:wbs_dat_o[24] *838:11 23.917 
2 *838:11 *838:15 47.5668 
3 *838:15 *897:sram_dat_i[24] 31.9148 
*END

*D_NET *839 0.107019
*CONN
*I *897:sram_dat_i[25] I *D soc_sys
*I *898:wbs_dat_o[25] O *D CF_SRAM_1024x32_wb_wrapper
*CAP
1 *897:sram_dat_i[25] 0.00753955
2 *898:wbs_dat_o[25] 0.00464669
3 *839:16 0.0190986
4 *839:12 0.0162058
5 *897:sram_dat_i[25] *875:11 7.37437e-05
6 *897:sram_dat_i[25] *876:5 0.0106537
7 *839:12 *898:wbs_dat_i[11] 0.000474178
8 *839:12 *898:wbs_dat_i[22] 0.00103051
9 *839:12 *898:wbs_dat_i[25] 0.000225757
10 *839:12 *898:wbs_dat_i[2] 0.000497596
11 *839:12 *841:29 0.000647818
12 *839:12 *842:19 0.0054682
13 *839:12 *845:27 0.00167222
14 *839:12 *880:27 0.00210929
15 *839:12 *888:21 0.000317767
16 *898:wbs_adr_i[10] *839:12 0.000200407
17 *898:wbs_adr_i[20] *839:12 2.0104e-05
18 *898:wbs_adr_i[29] *839:12 0.000563887
19 *898:wbs_adr_i[2] *839:12 0.000709006
20 *898:wbs_adr_i[5] *839:12 0.000771111
21 *74:79 *897:sram_dat_i[25] 0
22 *107:21 *839:12 0
23 *806:15 *897:sram_dat_i[25] 0.00363191
24 *809:17 *839:12 0.000223122
25 *834:11 *839:12 0.00296507
26 *838:11 *839:12 0.00156411
27 *838:15 *839:16 0.0257088
*RES
1 *898:wbs_dat_o[25] *839:12 23.4871 
2 *839:12 *839:16 48.342 
3 *839:16 *897:sram_dat_i[25] 28.4531 
*END

*D_NET *840 0.135347
*CONN
*I *897:sram_dat_i[26] I *D soc_sys
*I *898:wbs_dat_o[26] O *D CF_SRAM_1024x32_wb_wrapper
*CAP
1 *897:sram_dat_i[26] 0.00124315
2 *898:wbs_dat_o[26] 0.000902898
3 *840:21 0.00908855
4 *840:19 0.00845204
5 *840:9 0.00526624
6 *840:7 0.0055625
7 *897:sram_dat_i[26] *897:sram_dat_i[27] 0.00269905
8 *897:sram_dat_i[26] *877:5 0.001575
9 *840:7 *898:wbs_dat_i[26] 0
10 *840:7 *898:wbs_dat_i[27] 0
11 *840:9 *898:wbs_dat_i[10] 0.00240917
12 *840:9 *898:wbs_dat_i[11] 0.00098326
13 *840:9 *866:21 2.0514e-05
14 *840:9 *868:21 0.0232365
15 *840:19 *898:wbs_dat_i[0] 0.000712228
16 *840:19 *898:wbs_sel_i[3] 0.00073573
17 *840:19 *868:19 0.00138478
18 *840:21 *851:13 0
19 *840:21 *872:9 0.0252027
20 *897:sram_dat_i[11] *840:21 0.00248114
21 *898:wbs_adr_i[26] *840:7 0
22 *898:wbs_adr_i[27] *840:7 0
23 *39:29 *840:9 0
24 *110:21 *840:9 0.0286195
25 *649:13 *840:21 0
26 *651:13 *840:21 0
27 *693:9 *840:21 0
28 *701:9 *840:21 0.00317416
29 *769:9 *840:21 0.0112741
30 *807:7 *897:sram_dat_i[26] 0.00015317
31 *817:9 *840:21 0
32 *826:19 *840:19 0.000170461
*RES
1 *898:wbs_dat_o[26] *840:7 16.46 
2 *840:7 *840:9 259.2 
3 *840:9 *840:19 7.12363 
4 *840:19 *840:21 301.005 
5 *840:21 *897:sram_dat_i[26] 5.26773 
*END

*D_NET *841 0.102276
*CONN
*I *897:sram_dat_i[27] I *D soc_sys
*I *898:wbs_dat_o[27] O *D CF_SRAM_1024x32_wb_wrapper
*CAP
1 *897:sram_dat_i[27] 0.00627048
2 *898:wbs_dat_o[27] 0.0076114
3 *841:33 0.0240907
4 *841:29 0.0254317
5 *897:sram_dat_i[27] *877:5 0.00879433
6 *897:sram_dat_i[27] *878:11 0.000469016
7 *897:sram_dat_i[27] *878:15 0.0103254
8 *897:sram_dat_i[27] *880:15 2.38557e-05
9 *841:29 *898:wbs_dat_i[23] 0
10 *841:29 *898:wbs_dat_i[27] 0
11 *841:29 *898:wbs_dat_i[28] 0
12 *841:29 *842:19 0.00171436
13 *841:29 *845:27 0.000927755
14 *841:29 *880:27 0.000532647
15 *841:33 *874:19 0
16 *897:sram_dat_i[26] *897:sram_dat_i[27] 0.00269905
17 *898:wbs_adr_i[19] *841:29 0.000741678
18 *898:wbs_adr_i[29] *841:29 0.000106667
19 *104:26 *897:sram_dat_i[27] 0.000318843
20 *107:21 *841:29 0.000534453
21 *109:21 *841:29 0.00228516
22 *807:7 *897:sram_dat_i[27] 0.00602247
23 *808:7 *897:sram_dat_i[27] 0.000165264
24 *834:11 *841:29 0.000646772
25 *837:7 *841:29 5.63183e-05
26 *838:11 *841:29 0.00185936
27 *839:12 *841:29 0.000647818
*RES
1 *898:wbs_dat_o[27] *841:29 29.2918 
2 *841:29 *841:33 48.8588 
3 *841:33 *897:sram_dat_i[27] 40.8573 
*END

*D_NET *842 0.107846
*CONN
*I *897:sram_dat_i[28] I *D soc_sys
*I *898:wbs_dat_o[28] O *D CF_SRAM_1024x32_wb_wrapper
*CAP
1 *897:sram_dat_i[28] 0.00655011
2 *898:wbs_dat_o[28] 0.000765426
3 *842:23 0.0248349
4 *842:19 0.0207301
5 *842:15 0.00321067
6 *897:sram_dat_i[28] *879:5 0.0117465
7 *842:15 *898:wbs_dat_i[21] 2.35211e-05
8 *842:15 *898:wbs_dat_i[28] 0
9 *842:15 *898:wbs_dat_i[29] 0.00407609
10 *842:15 *845:9 9.27991e-05
11 *842:19 *880:27 0.00211305
12 *898:wbs_adr_i[19] *842:15 0.000397111
13 *898:wbs_adr_i[29] *842:15 0.00385306
14 *809:7 *897:sram_dat_i[28] 0.0126967
15 *834:11 *842:19 0.000535802
16 *835:11 *842:15 3.64367e-05
17 *838:11 *842:19 0.00900121
18 *839:12 *842:19 0.0054682
19 *841:29 *842:19 0.00171436
*RES
1 *898:wbs_dat_o[28] *842:15 44.4825 
2 *842:15 *842:19 13.9685 
3 *842:19 *842:23 49.9785 
4 *842:23 *897:sram_dat_i[28] 33.6971 
*END

*D_NET *843 0.117716
*CONN
*I *897:sram_dat_i[29] I *D soc_sys
*I *898:wbs_dat_o[29] O *D CF_SRAM_1024x32_wb_wrapper
*CAP
1 *897:sram_dat_i[29] 0.0136985
2 *898:wbs_dat_o[29] 0.00172937
3 *843:18 0.0136985
4 *843:16 0.0184185
5 *843:14 0.0201478
6 *897:sram_dat_i[29] *879:5 0.00205084
7 *897:sram_dat_i[29] *880:11 0.000154221
8 *897:sram_dat_i[29] *882:5 0
9 *843:14 *898:wbs_dat_i[22] 0.000667013
10 *843:14 *898:wbs_dat_i[26] 0.000538618
11 *843:16 *876:9 0.00385907
12 *107:21 *843:14 0.000544685
13 *799:9 *843:16 0.00373388
14 *803:9 *843:16 0.00619121
15 *805:17 *843:16 0.00553681
16 *810:7 *897:sram_dat_i[29] 0.0164415
17 *812:5 *897:sram_dat_i[29] 0.00984904
18 *834:11 *843:14 0.000455849
*RES
1 *898:wbs_dat_o[29] *843:14 1.56068 
2 *843:14 *843:16 49.5647 
3 *843:16 *843:18 0.5 
4 *843:18 *897:sram_dat_i[29] 58.0526 
*END

*D_NET *844 0.0952826
*CONN
*I *897:sram_dat_i[2] I *D soc_sys
*I *898:wbs_dat_o[2] O *D CF_SRAM_1024x32_wb_wrapper
*CAP
1 *897:sram_dat_i[2] 0.00266831
2 *898:wbs_dat_o[2] 0.00352459
3 *844:17 0.00919048
4 *844:15 0.0100468
5 *897:sram_dat_i[2] *856:7 3.56431e-05
6 *897:sram_dat_i[2] *881:7 0.000612006
7 *844:15 *898:wbs_sel_i[1] 0.00128507
8 *844:15 *898:wbs_sel_i[2] 0
9 *844:15 *848:21 0.0149879
10 *844:15 *850:11 0.00326262
11 *844:15 *865:21 0.00240974
12 *844:17 *853:13 0.000347171
13 *844:17 *860:9 0
14 *844:17 *861:19 0.00253967
15 *844:17 *890:9 3.05916e-05
16 *898:wbs_adr_i[2] *844:15 0
17 *65:19 *844:17 9.58678e-06
18 *676:15 *897:sram_dat_i[2] 0.00108798
19 *694:9 *844:17 0
20 *720:9 *844:17 0
21 *730:9 *844:17 0.00337187
22 *755:9 *844:17 0.000862469
23 *783:15 *897:sram_dat_i[2] 0.00109836
24 *788:11 *844:15 0.00912445
25 *797:19 *844:17 5.4378e-05
26 *811:7 *897:sram_dat_i[2] 0.00233322
27 *823:15 *844:15 0.000219363
28 *824:19 *844:15 0.00359977
29 *827:9 *844:15 0.000370327
30 *827:19 *844:17 6.5733e-05
31 *828:9 *844:15 0.000404026
32 *830:9 *844:15 0.000118286
33 *831:9 *844:15 0.00262903
34 *832:9 *844:15 0.00012905
35 *833:13 *844:17 0.0188641
*RES
1 *898:wbs_dat_o[2] *844:15 34.7888 
2 *844:15 *844:17 220.935 
3 *844:17 *897:sram_dat_i[2] 8.23933 
*END

*D_NET *845 0.0973213
*CONN
*I *897:sram_dat_i[30] I *D soc_sys
*I *898:wbs_dat_o[30] O *D CF_SRAM_1024x32_wb_wrapper
*CAP
1 *897:sram_dat_i[30] 0.00639941
2 *898:wbs_dat_o[30] 0.000206319
3 *845:29 0.0249732
4 *845:27 0.020235
5 *845:9 0.00355146
6 *845:7 0.00209656
7 *897:sram_dat_i[30] *882:5 0.0143931
8 *845:7 *898:wbs_dat_i[30] 0
9 *845:7 *898:wbs_dat_i[31] 0
10 *845:9 *898:wbs_dat_i[29] 0.000231744
11 *845:9 *883:21 8.73244e-05
12 *845:27 *898:wbs_dat_i[11] 0.000140718
13 *845:27 *880:19 0.000144476
14 *898:wbs_adr_i[22] *845:9 0.000674152
15 *898:wbs_adr_i[29] *845:9 0.0023257
16 *107:21 *845:27 0.000811124
17 *142:26 *845:9 0.00211655
18 *808:21 *845:9 0
19 *812:5 *897:sram_dat_i[30] 0.0143931
20 *831:7 *845:27 6.02846e-05
21 *835:11 *845:27 0.000880854
22 *838:11 *845:27 0.000907403
23 *839:12 *845:27 0.00167222
24 *841:29 *845:27 0.000927755
25 *842:15 *845:9 9.27991e-05
*RES
1 *898:wbs_dat_o[30] *845:7 4.73 
2 *845:7 *845:9 62.55 
3 *845:9 *845:27 12.0448 
4 *845:27 *845:29 50.1676 
5 *845:29 *897:sram_dat_i[30] 38.3923 
*END

*D_NET *846 0.0906324
*CONN
*I *897:sram_dat_i[31] I *D soc_sys
*I *898:wbs_dat_o[31] O *D CF_SRAM_1024x32_wb_wrapper
*CAP
1 *897:sram_dat_i[31] 0.0101414
2 *898:wbs_dat_o[31] 2.32892e-05
3 *846:12 0.0101414
4 *846:10 0.018679
5 *846:8 0.0187023
6 *897:sram_dat_i[31] *882:5 0.0112989
7 *897:sram_dat_i[31] *883:7 0.0181179
8 *846:8 *898:wbs_dat_i[22] 8.59615e-05
9 *107:21 *846:8 2.253e-05
10 *813:11 *897:sram_dat_i[31] 0.0009865
11 *813:13 *897:sram_dat_i[31] 0.00243324
12 *813:17 *846:10 0
*RES
1 *898:wbs_dat_o[31] *846:8 1.1254 
2 *846:8 *846:10 50.5983 
3 *846:10 *846:12 0.5 
4 *846:12 *897:sram_dat_i[31] 56.0715 
*END

*D_NET *847 0.0942973
*CONN
*I *897:sram_dat_i[3] I *D soc_sys
*I *898:wbs_dat_o[3] O *D CF_SRAM_1024x32_wb_wrapper
*CAP
1 *897:sram_dat_i[3] 0.00366968
2 *898:wbs_dat_o[3] 0.00296495
3 *847:13 0.00704029
4 *847:11 0.00633556
5 *897:sram_dat_i[3] *884:7 0.00341656
6 *847:11 *898:wbs_dat_i[3] 0
7 *847:11 *898:wbs_sel_i[3] 0
8 *847:13 *855:9 0.0189481
9 *898:wbs_adr_i[1] *847:11 0.0115479
10 *898:wbs_adr_i[6] *847:11 0.0010215
11 *898:wbs_adr_i[7] *847:11 0.0134394
12 *65:13 *847:11 0.00239137
13 *732:9 *847:13 0.0027578
14 *793:9 *847:13 0.014854
15 *793:13 *847:13 0.00259801
16 *811:7 *897:sram_dat_i[3] 0
17 *811:9 *847:13 4.79496e-05
18 *814:7 *897:sram_dat_i[3] 0.00314494
19 *819:19 *847:13 0.000119216
20 *828:17 *847:13 0
*RES
1 *898:wbs_dat_o[3] *847:11 25.6221 
2 *847:11 *847:13 218.385 
3 *847:13 *897:sram_dat_i[3] 11.2692 
*END

*D_NET *848 0.0958221
*CONN
*I *897:sram_dat_i[4] I *D soc_sys
*I *898:wbs_dat_o[4] O *D CF_SRAM_1024x32_wb_wrapper
*CAP
1 *897:sram_dat_i[4] 0.00181064
2 *898:wbs_dat_o[4] 0.00466831
3 *848:23 0.00879489
4 *848:21 0.0116526
5 *897:sram_dat_i[4] *885:7 0.00178619
6 *848:21 *898:wbs_dat_i[4] 0
7 *848:21 *898:wbs_dat_i[5] 0
8 *848:21 *850:11 0.0135898
9 *848:21 *865:21 0.000301884
10 *848:23 *868:9 0.00659322
11 *848:23 *891:9 0
12 *651:31 *848:23 0.00155324
13 *691:9 *848:23 0.00672224
14 *718:11 *848:23 0.000897897
15 *741:25 *848:23 0.00451879
16 *788:11 *848:21 0.0046236
17 *815:7 *897:sram_dat_i[4] 0.00178619
18 *823:15 *848:21 0.000483294
19 *824:19 *848:21 0.0040852
20 *827:9 *848:21 0.000161545
21 *828:9 *848:21 0.000148924
22 *829:19 *848:21 0.000988697
23 *830:9 *848:21 0.00256734
24 *831:9 *848:21 0.000298808
25 *832:9 *848:21 0.00280097
26 *844:15 *848:21 0.0149879
*RES
1 *898:wbs_dat_o[4] *848:21 41.2214 
2 *848:21 *848:23 229.605 
3 *848:23 *897:sram_dat_i[4] 6.08347 
*END

*D_NET *849 0.0833664
*CONN
*I *897:sram_dat_i[5] I *D soc_sys
*I *898:wbs_dat_o[5] O *D CF_SRAM_1024x32_wb_wrapper
*CAP
1 *897:sram_dat_i[5] 0.00432071
2 *898:wbs_dat_o[5] 0.00412399
3 *849:13 0.0118963
4 *849:11 0.0116996
5 *897:sram_dat_i[5] *886:7 0.0031831
6 *849:11 *898:wbs_dat_i[1] 0.000261731
7 *849:11 *898:wbs_dat_i[3] 0.00762492
8 *849:11 *898:wbs_dat_i[5] 0
9 *849:11 *898:wbs_dat_i[6] 0
10 *849:11 *853:11 0.000645226
11 *849:13 *864:9 0
12 *849:13 *864:23 0
13 *849:13 *884:9 0.0199016
14 *898:wbs_adr_i[0] *849:11 0.0104169
15 *898:wbs_adr_i[4] *849:11 0
16 *898:wbs_adr_i[6] *849:11 0
17 *898:wbs_adr_i[7] *849:11 0
18 *683:9 *849:13 0.00282619
19 *790:17 *849:11 0.00339989
20 *815:7 *897:sram_dat_i[5] 0
21 *816:7 *897:sram_dat_i[5] 0.00274998
22 *820:9 *849:13 0
23 *822:11 *849:11 0.000231168
24 *825:19 *849:11 1.90963e-05
25 *833:11 *849:11 6.60704e-05
*RES
1 *898:wbs_dat_o[5] *849:11 30.6926 
2 *849:11 *849:13 229.605 
3 *849:13 *897:sram_dat_i[5] 12.318 
*END

*D_NET *850 0.107049
*CONN
*I *897:sram_dat_i[6] I *D soc_sys
*I *898:wbs_dat_o[6] O *D CF_SRAM_1024x32_wb_wrapper
*CAP
1 *897:sram_dat_i[6] 0.0020926
2 *898:wbs_dat_o[6] 0.00429758
3 *850:13 0.00672073
4 *850:11 0.00892571
5 *897:sram_dat_i[6] *886:7 0.000218338
6 *897:sram_dat_i[6] *887:7 0.00147975
7 *850:11 *898:wbs_dat_i[6] 0
8 *850:11 *853:11 0.0178919
9 *850:11 *865:19 0.000680516
10 *850:11 *865:21 0.000109729
11 *850:13 *858:9 0.0177442
12 *850:13 *866:9 0
13 *850:13 *887:9 0.0102981
14 *898:wbs_adr_i[7] *850:11 0
15 *67:231 *897:sram_dat_i[6] 0.000626864
16 *143:45 *850:13 8.27944e-05
17 *651:31 *850:13 0.00108259
18 *657:21 *850:13 0
19 *686:9 *850:13 0.00274548
20 *753:9 *850:13 0.00123109
21 *757:19 *850:13 0.000532018
22 *817:7 *897:sram_dat_i[6] 0.00131267
23 *818:7 *897:sram_dat_i[6] 1.52121e-05
24 *823:15 *850:11 0.000279725
25 *824:19 *850:11 0.00453008
26 *827:19 *850:11 0.000207862
27 *829:9 *850:11 0.00287299
28 *829:19 *850:11 0.000717382
29 *830:9 *850:11 0.00012905
30 *831:9 *850:11 0.000119028
31 *832:9 *850:11 0.000118286
32 *836:9 *850:11 0.00313443
33 *844:15 *850:11 0.00326262
34 *848:21 *850:11 0.0135898
*RES
1 *898:wbs_dat_o[6] *850:11 39.4333 
2 *850:11 *850:13 234.705 
3 *850:13 *897:sram_dat_i[6] 6.49133 
*END

*D_NET *851 0.100715
*CONN
*I *897:sram_dat_i[7] I *D soc_sys
*I *898:wbs_dat_o[7] O *D CF_SRAM_1024x32_wb_wrapper
*CAP
1 *897:sram_dat_i[7] 0.00132356
2 *898:wbs_dat_o[7] 0.00514168
3 *851:13 0.00635111
4 *851:11 0.0101692
5 *897:sram_dat_i[7] *888:21 0.00135091
6 *851:11 *898:wbs_dat_i[0] 0.000153236
7 *851:11 *898:wbs_dat_i[11] 0.000494753
8 *851:11 *898:wbs_dat_i[4] 0.000505422
9 *851:11 *898:wbs_dat_i[5] 0.0151266
10 *851:11 *898:wbs_dat_i[8] 0
11 *851:11 *852:9 0.0197155
12 *851:13 *869:9 0.000248297
13 *898:wbs_adr_i[7] *851:11 0
14 *898:wbs_adr_i[8] *851:11 0
15 *39:37 *851:11 0.00241685
16 *110:13 *851:11 0.00027412
17 *652:33 *851:13 0.00226481
18 *688:9 *851:13 0.00291101
19 *817:9 *851:13 0.00995732
20 *818:7 *897:sram_dat_i[7] 0.00135091
21 *829:21 *851:13 0.0209601
22 *840:21 *851:13 0
*RES
1 *898:wbs_dat_o[7] *851:11 49.7636 
2 *851:11 *851:13 245.415 
3 *851:13 *897:sram_dat_i[7] 4.68507 
*END

*D_NET *852 0.106282
*CONN
*I *897:sram_dat_i[8] I *D soc_sys
*I *898:wbs_dat_o[8] O *D CF_SRAM_1024x32_wb_wrapper
*CAP
1 *897:sram_dat_i[8] 0.00175414
2 *898:wbs_dat_o[8] 0.00533336
3 *852:13 0.00653711
4 *852:11 0.00478297
5 *852:9 0.00533336
6 *897:sram_dat_i[8] *888:21 0.000529759
7 *897:sram_dat_i[8] *889:7 0.00158207
8 *852:9 *898:wbs_dat_i[11] 0.000152832
9 *852:9 *898:wbs_dat_i[8] 0
10 *852:9 *898:wbs_dat_i[9] 0
11 *852:9 *898:wbs_sel_i[2] 0.0140073
12 *852:9 *869:15 0.00122069
13 *852:13 *865:9 0.0211802
14 *852:13 *872:9 0.000413668
15 *852:13 *891:9 0.0192695
16 *897:sram_dat_i[11] *852:13 0.00106786
17 *898:wbs_adr_i[9] *852:9 0
18 *32:21 *852:9 0.000643964
19 *36:9 *852:9 0.000227313
20 *110:13 *852:9 0.00136188
21 *651:13 *852:13 0
22 *709:9 *852:13 0
23 *740:11 *852:13 0.000714608
24 *819:7 *897:sram_dat_i[8] 0.000453588
25 *851:11 *852:9 0.0197155
*RES
1 *898:wbs_dat_o[8] *852:9 49.8901 
2 *852:9 *852:11 0.5 
3 *852:11 *852:13 248.985 
4 *852:13 *897:sram_dat_i[8] 5.44253 
*END

*D_NET *853 0.119854
*CONN
*I *897:sram_dat_i[9] I *D soc_sys
*I *898:wbs_dat_o[9] O *D CF_SRAM_1024x32_wb_wrapper
*CAP
1 *897:sram_dat_i[9] 0.00244973
2 *898:wbs_dat_o[9] 0.00630427
3 *853:13 0.00674577
4 *853:11 0.0106003
5 *897:sram_dat_i[9] *890:7 0.0024338
6 *853:11 *898:wbs_dat_i[10] 0
7 *853:11 *898:wbs_dat_i[3] 0.0127052
8 *853:11 *898:wbs_dat_i[9] 0
9 *853:13 *861:19 0.00311697
10 *853:13 *890:9 0.0215635
11 *898:wbs_adr_i[7] *853:11 0
12 *141:21 *853:11 0.000238056
13 *143:47 *853:11 0.00324544
14 *730:9 *853:13 0
15 *783:17 *853:13 0
16 *792:19 *853:11 0.000215166
17 *820:7 *897:sram_dat_i[9] 0.00244952
18 *823:15 *853:11 0
19 *824:19 *853:11 0.00439705
20 *825:19 *853:11 0.00247142
21 *827:19 *853:11 0.000176888
22 *833:13 *853:13 0.0188653
23 *837:9 *853:11 0.00299127
24 *844:17 *853:13 0.000347171
25 *849:11 *853:11 0.000645226
26 *850:11 *853:11 0.0178919
*RES
1 *898:wbs_dat_o[9] *853:11 39.9138 
2 *853:11 *853:13 243.375 
3 *853:13 *897:sram_dat_i[9] 8.1228 
*END

*D_NET *854 0.0674648
*CONN
*I *898:wbs_sel_i[0] I *D CF_SRAM_1024x32_wb_wrapper
*I *897:sram_sel_o[0] O *D soc_sys
*CAP
1 *898:wbs_sel_i[0] 0.00327216
2 *897:sram_sel_o[0] 0.00237668
3 *854:9 0.00725648
4 *854:7 0.006361
5 *898:wbs_sel_i[0] *888:21 0.00138265
6 *854:7 *859:7 0.00123113
7 *854:9 *857:9 0.0178792
8 *897:sram_dat_i[0] *854:7 0.000361648
9 *898:wbs_adr_i[5] *898:wbs_sel_i[0] 0.00469947
10 *42:13 *854:9 0.0074679
11 *107:21 *898:wbs_sel_i[0] 0.0125516
12 *540:50 *898:wbs_sel_i[0] 0.000338868
13 *650:35 *854:7 2.36687e-05
14 *651:31 *854:7 0.000100046
15 *800:7 *854:7 0.00216229
*RES
1 *897:sram_sel_o[0] *854:7 7.30707 
2 *854:7 *854:9 201.045 
3 *854:9 *898:wbs_sel_i[0] 22.4092 
*END

*D_NET *855 0.0988598
*CONN
*I *898:wbs_sel_i[1] I *D CF_SRAM_1024x32_wb_wrapper
*I *897:sram_sel_o[1] O *D soc_sys
*CAP
1 *898:wbs_sel_i[1] 0.00294501
2 *897:sram_sel_o[1] 0.00404009
3 *855:9 0.0065669
4 *855:7 0.00766198
5 *898:wbs_sel_i[1] *898:wbs_dat_i[11] 0.00116803
6 *898:wbs_sel_i[1] *861:19 0.000731478
7 *898:wbs_sel_i[1] *864:25 0.00271964
8 *855:7 *870:11 0.00136484
9 *855:9 *863:19 0
10 *898:wbs_adr_i[2] *898:wbs_sel_i[1] 0
11 *724:9 *855:9 0.00205252
12 *732:9 *855:9 0.000795438
13 *758:23 *855:7 0.000107452
14 *762:15 *855:7 0.000813441
15 *781:13 *855:7 0.000429666
16 *788:11 *898:wbs_sel_i[1] 0.010362
17 *792:19 *855:9 0
18 *793:13 *855:9 5.52193e-05
19 *800:7 *855:7 0
20 *806:17 *855:9 0.000129767
21 *811:7 *855:7 0.00321428
22 *811:9 *855:9 0.0187375
23 *823:15 *898:wbs_sel_i[1] 0.0104216
24 *824:19 *898:wbs_sel_i[1] 0.0010707
25 *825:9 *898:wbs_sel_i[1] 0.000504265
26 *826:9 *898:wbs_sel_i[1] 0.00248434
27 *826:19 *898:wbs_sel_i[1] 0.000250397
28 *828:15 *855:9 0
29 *833:11 *898:wbs_sel_i[1] 0
30 *844:15 *898:wbs_sel_i[1] 0.00128507
31 *847:13 *855:9 0.0189481
*RES
1 *897:sram_sel_o[1] *855:7 11.2109 
2 *855:7 *855:9 220.425 
3 *855:9 *898:wbs_sel_i[1] 31.801 
*END

*D_NET *856 0.0913385
*CONN
*I *898:wbs_sel_i[2] I *D CF_SRAM_1024x32_wb_wrapper
*I *897:sram_sel_o[2] O *D soc_sys
*CAP
1 *898:wbs_sel_i[2] 0.0044165
2 *897:sram_sel_o[2] 0.00319369
3 *856:9 0.00857238
4 *856:7 0.00734957
5 *898:wbs_sel_i[2] *898:wbs_dat_i[3] 0
6 *898:wbs_sel_i[2] *869:15 0.00612807
7 *856:7 *881:7 0.00115039
8 *856:9 *871:9 0
9 *856:9 *885:9 0
10 *897:sram_dat_i[2] *856:7 3.56431e-05
11 *898:wbs_adr_i[3] *898:wbs_sel_i[2] 0
12 *36:9 *898:wbs_sel_i[2] 0.00328045
13 *40:13 *856:9 0.000528293
14 *783:15 *856:7 0.00113696
15 *811:7 *856:7 0
16 *814:7 *856:7 0.00287567
17 *815:9 *856:9 0.0193534
18 *818:9 *856:9 0.0193102
19 *844:15 *898:wbs_sel_i[2] 0
20 *852:9 *898:wbs_sel_i[2] 0.0140073
*RES
1 *897:sram_sel_o[2] *856:7 9.5212 
2 *856:7 *856:9 231.135 
3 *856:9 *898:wbs_sel_i[2] 41.2861 
*END

*D_NET *857 0.0960473
*CONN
*I *898:wbs_sel_i[3] I *D CF_SRAM_1024x32_wb_wrapper
*I *897:sram_sel_o[3] O *D soc_sys
*CAP
1 *898:wbs_sel_i[3] 0.0042642
2 *897:sram_sel_o[3] 0.00222141
3 *857:9 0.00924724
4 *857:7 0.00720445
5 *898:wbs_sel_i[3] *898:wbs_dat_i[0] 0.0135736
6 *898:wbs_sel_i[3] *898:wbs_dat_i[10] 0.0152216
7 *898:wbs_sel_i[3] *898:wbs_dat_i[11] 0.00225314
8 *898:wbs_sel_i[3] *898:wbs_dat_i[3] 0
9 *898:wbs_sel_i[3] *898:wbs_dat_i[4] 0.000231623
10 *898:wbs_sel_i[3] *862:13 0.00298843
11 *898:wbs_sel_i[3] *863:21 0.00325436
12 *898:wbs_sel_i[3] *868:19 0.000156891
13 *857:7 *884:7 0.00214546
14 *857:9 *866:9 0.000153209
15 *898:wbs_adr_i[4] *898:wbs_sel_i[3] 0
16 *42:13 *857:9 0
17 *142:24 *857:9 0
18 *685:9 *857:9 0.00213351
19 *815:7 *857:7 0.00214604
20 *827:21 *857:9 0.0102371
21 *840:19 *898:wbs_sel_i[3] 0.00073573
22 *847:11 *898:wbs_sel_i[3] 0
23 *854:9 *857:9 0.0178792
*RES
1 *897:sram_sel_o[3] *857:7 7.2488 
2 *857:7 *857:9 232.155 
3 *857:9 *898:wbs_sel_i[3] 41.6638 
*END

*D_NET *858 0.0827326
*CONN
*I *898:wbs_stb_i I *D CF_SRAM_1024x32_wb_wrapper
*I *897:sram_stb_o O *D soc_sys
*CAP
1 *898:wbs_stb_i 0.00328324
2 *897:sram_stb_o 0.00225515
3 *858:9 0.0070219
4 *858:7 0.0059938
5 *898:wbs_stb_i *898:wbs_dat_i[2] 0.00458245
6 *898:wbs_stb_i *898:wbs_we_i 0
7 *898:wbs_stb_i *888:21 0.0032818
8 *858:7 *891:7 0.00149639
9 *897:sram_dat_i[0] *858:7 0
10 *898:wbs_adr_i[2] *898:wbs_stb_i 0.0108255
11 *898:wbs_adr_i[3] *898:wbs_stb_i 4.31143e-05
12 *898:wbs_cyc_i *898:wbs_stb_i 1.99593e-05
13 *109:21 *898:wbs_stb_i 0.00212645
14 *114:29 *898:wbs_stb_i 0.00221393
15 *540:58 *898:wbs_stb_i 0.00195575
16 *651:31 *858:9 0.00108259
17 *657:21 *858:9 0.0053751
18 *753:9 *858:9 0.00505772
19 *757:19 *858:9 0.000571693
20 *808:19 *898:wbs_stb_i 0.00286494
21 *819:19 *898:wbs_stb_i 0.00311481
22 *821:7 *858:7 0.0018221
23 *850:13 *858:9 0.0177442
*RES
1 *897:sram_stb_o *858:7 6.5496 
2 *858:7 *858:9 200.025 
3 *858:9 *898:wbs_stb_i 22.6204 
*END

*D_NET *859 0.0833089
*CONN
*I *898:wbs_dat_i[0] I *D CF_SRAM_1024x32_wb_wrapper
*I *897:sram_dat_o[0] O *D soc_sys
*CAP
1 *898:wbs_dat_i[0] 0.0043822
2 *897:sram_dat_o[0] 0.00121673
3 *859:9 0.00892549
4 *859:7 0.00576002
5 *898:wbs_dat_i[0] *898:wbs_dat_i[4] 0.0124422
6 *898:wbs_dat_i[0] *898:wbs_we_i 0
7 *859:9 *869:9 0.00556582
8 *859:9 *881:9 0.0178925
9 *897:sram_dat_i[0] *859:7 0.00114688
10 *898:wbs_adr_i[0] *898:wbs_dat_i[0] 0
11 *898:wbs_sel_i[3] *898:wbs_dat_i[0] 0.0135736
12 *39:37 *898:wbs_dat_i[0] 0.0014388
13 *650:35 *859:7 0.000168903
14 *650:35 *859:9 0.0015942
15 *736:11 *859:9 0.00062336
16 *747:9 *859:9 0.00592553
17 *788:13 *859:9 0.000556117
18 *822:11 *898:wbs_dat_i[0] 0
19 *840:19 *898:wbs_dat_i[0] 0.000712228
20 *851:11 *898:wbs_dat_i[0] 0.000153236
21 *854:7 *859:7 0.00123113
*RES
1 *897:sram_dat_o[0] *859:7 4.33547 
2 *859:7 *859:9 219.405 
3 *859:9 *898:wbs_dat_i[0] 41.0085 
*END

*D_NET *860 0.103082
*CONN
*I *898:wbs_dat_i[10] I *D CF_SRAM_1024x32_wb_wrapper
*I *897:sram_dat_o[10] O *D soc_sys
*CAP
1 *898:wbs_dat_i[10] 0.00773027
2 *897:sram_dat_o[10] 0.00353054
3 *860:9 0.0163977
4 *860:7 0.012198
5 *898:wbs_dat_i[10] *898:wbs_dat_i[11] 0.00613316
6 *898:wbs_dat_i[10] *862:13 0.000569934
7 *898:wbs_dat_i[10] *863:21 0.000522396
8 *898:wbs_dat_i[10] *866:21 0.00381665
9 *898:wbs_dat_i[10] *867:17 0.00349831
10 *898:wbs_dat_i[10] *868:19 0.000330387
11 *898:wbs_dat_i[10] *868:21 0.00261335
12 *860:7 *861:7 0
13 *860:7 *890:7 0
14 *860:9 *885:9 0.000170275
15 *897:sram_dat_i[10] *860:7 0.00178492
16 *897:sram_dat_i[11] *860:7 0.000230629
17 *897:sram_dat_i[12] *860:7 0
18 *898:wbs_sel_i[3] *898:wbs_dat_i[10] 0.0152216
19 *110:21 *898:wbs_dat_i[10] 0.000578951
20 *679:9 *860:9 0.00458114
21 *680:9 *860:9 0.00449264
22 *694:9 *860:9 0
23 *702:9 *860:9 0
24 *710:9 *860:9 0.000686951
25 *738:9 *860:9 0.00102246
26 *790:17 *898:wbs_dat_i[10] 0.000113263
27 *791:7 *860:7 0.000900347
28 *820:7 *860:7 0
29 *823:15 *898:wbs_dat_i[10] 0.00349175
30 *825:21 *860:9 0.0100567
31 *840:9 *898:wbs_dat_i[10] 0.00240917
32 *844:17 *860:9 0
33 *853:11 *898:wbs_dat_i[10] 0
*RES
1 *897:sram_dat_o[10] *860:7 8.822 
2 *860:7 *860:9 253.065 
3 *860:9 *898:wbs_dat_i[10] 45.4073 
*END

*D_NET *861 0.115623
*CONN
*I *898:wbs_dat_i[11] I *D CF_SRAM_1024x32_wb_wrapper
*I *897:sram_dat_o[11] O *D soc_sys
*CAP
1 *898:wbs_dat_i[11] 0.00653869
2 *897:sram_dat_o[11] 0.00292757
3 *861:19 0.0227304
4 *861:7 0.0191193
5 *898:wbs_dat_i[11] *898:wbs_dat_i[4] 0.0026373
6 *898:wbs_dat_i[11] *898:wbs_dat_i[5] 0.000303532
7 *898:wbs_dat_i[11] *868:21 0.000901247
8 *898:wbs_dat_i[11] *869:15 0
9 *861:19 *866:19 0.000235267
10 *861:19 *868:19 0.000239656
11 *861:19 *890:9 0.00210265
12 *897:sram_dat_i[11] *861:7 0.00143483
13 *897:sram_dat_i[12] *861:7 0.000640392
14 *898:wbs_dat_i[10] *898:wbs_dat_i[11] 0.00613316
15 *898:wbs_sel_i[1] *898:wbs_dat_i[11] 0.00116803
16 *898:wbs_sel_i[1] *861:19 0.000731478
17 *898:wbs_sel_i[3] *898:wbs_dat_i[11] 0.00225314
18 *39:29 *898:wbs_dat_i[11] 0.000473151
19 *107:21 *898:wbs_dat_i[11] 0
20 *710:9 *861:19 0.00246278
21 *729:9 *861:19 0.0110159
22 *755:9 *861:19 0.00507437
23 *788:11 *898:wbs_dat_i[11] 0.000700586
24 *788:11 *861:19 0.00101868
25 *790:17 *898:wbs_dat_i[11] 0.000354076
26 *792:7 *861:7 0.00111931
27 *823:15 *898:wbs_dat_i[11] 0.00266867
28 *823:15 *861:19 0.00116182
29 *824:19 *898:wbs_dat_i[11] 0.00349677
30 *824:19 *861:19 0.00388816
31 *826:19 *861:19 0.000598104
32 *833:13 *861:19 0.00359169
33 *839:12 *898:wbs_dat_i[11] 0.000474178
34 *840:9 *898:wbs_dat_i[11] 0.00098326
35 *844:17 *861:19 0.00253967
36 *845:27 *898:wbs_dat_i[11] 0.000140718
37 *851:11 *898:wbs_dat_i[11] 0.000494753
38 *852:9 *898:wbs_dat_i[11] 0.000152832
39 *853:13 *861:19 0.00311697
40 *860:7 *861:7 0
*RES
1 *897:sram_dat_o[11] *861:7 8.09367 
2 *861:7 *861:19 44.6273 
3 *861:19 *898:wbs_dat_i[11] 23.064 
*END

*D_NET *862 0.103903
*CONN
*I *898:wbs_dat_i[12] I *D CF_SRAM_1024x32_wb_wrapper
*I *897:sram_dat_o[12] O *D soc_sys
*CAP
1 *898:wbs_dat_i[12] 0.00109005
2 *897:sram_dat_o[12] 0.00292213
3 *862:13 0.00485547
4 *862:11 0.00376542
5 *862:9 0.004833
6 *862:7 0.00775513
7 *862:9 *871:9 0.00014278
8 *862:9 *889:9 0.0213038
9 *862:13 *863:21 0.0186002
10 *862:13 *866:21 0.000160709
11 *862:13 *867:17 2.21074e-05
12 *897:sram_dat_i[12] *862:7 0.00241109
13 *898:wbs_adr_i[12] *898:wbs_dat_i[12] 0
14 *898:wbs_dat_i[10] *862:13 0.000569934
15 *898:wbs_sel_i[3] *862:13 0.00298843
16 *39:29 *862:13 0.00599986
17 *713:9 *862:9 0.000598161
18 *761:15 *862:7 0.00065729
19 *770:15 *862:7 0.000346288
20 *793:7 *862:7 0.00293957
21 *825:7 *898:wbs_dat_i[12] 0
22 *830:13 *862:9 0.0219414
*RES
1 *897:sram_dat_o[12] *862:7 9.98733 
2 *862:7 *862:9 259.568 
3 *862:9 *862:11 2 
4 *862:11 *862:13 175.365 
5 *862:13 *898:wbs_dat_i[12] 17.735 
*END

*D_NET *863 0.118665
*CONN
*I *898:wbs_dat_i[13] I *D CF_SRAM_1024x32_wb_wrapper
*I *897:sram_dat_o[13] O *D soc_sys
*CAP
1 *898:wbs_dat_i[13] 0.00104587
2 *897:sram_dat_o[13] 0.00399541
3 *863:21 0.00365695
4 *863:19 0.00328446
5 *863:9 0.00415442
6 *863:7 0.00747645
7 *863:7 *864:7 0
8 *863:19 *867:15 0.00127075
9 *863:21 *867:17 0.01916
10 *897:sram_dat_i[13] *863:7 0.000712431
11 *897:sram_dat_i[14] *863:7 0.00052244
12 *898:wbs_adr_i[13] *898:wbs_dat_i[13] 0
13 *898:wbs_dat_i[10] *863:21 0.000522396
14 *898:wbs_sel_i[3] *863:21 0.00325436
15 *39:29 *863:21 6.5315e-05
16 *540:58 *863:19 3.96284e-05
17 *721:9 *863:9 0.00376894
18 *793:7 *863:7 0.00129361
19 *794:7 *863:7 0.00108451
20 *802:9 *863:19 0.0004618
21 *826:7 *898:wbs_dat_i[13] 0
22 *828:15 *863:19 1.73654e-05
23 *828:17 *863:9 0.0220256
24 *831:13 *863:9 0.0220236
25 *831:13 *863:19 0.000228278
26 *855:9 *863:19 0
27 *862:13 *863:21 0.0186002
*RES
1 *897:sram_dat_o[13] *863:7 10.8613 
2 *863:7 *863:9 246.562 
3 *863:9 *863:19 23.055 
4 *863:19 *863:21 176.4 
5 *863:21 *898:wbs_dat_i[13] 17.48 
*END

*D_NET *864 0.115949
*CONN
*I *898:wbs_dat_i[14] I *D CF_SRAM_1024x32_wb_wrapper
*I *897:sram_dat_o[14] O *D soc_sys
*CAP
1 *898:wbs_dat_i[14] 0.000801417
2 *897:sram_dat_o[14] 0.00449798
3 *864:25 0.00333793
4 *864:23 0.00347382
5 *864:9 0.00473406
6 *864:7 0.00829474
7 *897:sram_dat_i[14] *864:7 0.00205586
8 *897:sram_dat_i[15] *864:7 0.00101114
9 *898:wbs_adr_i[14] *898:wbs_dat_i[14] 0
10 *898:wbs_sel_i[1] *864:25 0.00271964
11 *110:21 *864:25 0
12 *683:9 *864:9 0
13 *793:7 *864:7 0
14 *795:7 *864:7 0.000983146
15 *796:7 *864:7 0
16 *796:9 *864:9 0.0221768
17 *796:9 *864:23 2.03693e-05
18 *806:15 *864:9 0.00153712
19 *820:9 *864:9 0.0206023
20 *820:19 *864:23 0.000257375
21 *823:15 *864:25 0.000478109
22 *826:7 *898:wbs_dat_i[14] 0
23 *826:9 *864:25 0.0189368
24 *827:7 *898:wbs_dat_i[14] 0
25 *828:9 *864:25 0.0193556
26 *832:19 *864:23 0.000674254
27 *849:13 *864:9 0
28 *849:13 *864:23 0
29 *863:7 *864:7 0
*RES
1 *897:sram_dat_o[14] *864:7 11.7353 
2 *864:7 *864:9 247.965 
3 *864:9 *864:23 17.9075 
4 *864:23 *864:25 175.365 
5 *864:25 *898:wbs_dat_i[14] 13.91 
*END

*D_NET *865 0.120989
*CONN
*I *898:wbs_dat_i[15] I *D CF_SRAM_1024x32_wb_wrapper
*I *897:sram_dat_o[15] O *D soc_sys
*CAP
1 *898:wbs_dat_i[15] 0.000751584
2 *897:sram_dat_o[15] 0.00137899
3 *865:21 0.00397656
4 *865:19 0.00369617
5 *865:9 0.00528731
6 *865:7 0.00619511
7 *865:9 *872:9 0.0231236
8 *897:sram_dat_i[11] *865:9 0.00148356
9 *897:sram_dat_i[15] *865:7 0.000445655
10 *898:wbs_adr_i[15] *898:wbs_dat_i[15] 0
11 *67:231 *865:7 0.00211023
12 *141:13 *865:19 0.00111754
13 *143:47 *865:21 0
14 *651:13 *865:9 0
15 *740:11 *865:9 0.000767946
16 *792:19 *865:19 2.77839e-05
17 *796:7 *865:7 0.00160524
18 *824:19 *865:19 0.000305691
19 *827:7 *898:wbs_dat_i[15] 0
20 *827:9 *865:21 0.0217259
21 *827:19 *865:19 0.000250646
22 *828:7 *898:wbs_dat_i[15] 0
23 *828:9 *865:21 0.000225511
24 *829:9 *865:21 0.000504204
25 *829:19 *865:19 0.000484836
26 *830:9 *865:21 0.000324422
27 *831:9 *865:21 0.0205189
28 *844:15 *865:21 0.00240974
29 *848:21 *865:21 0.000301884
30 *850:11 *865:19 0.000680516
31 *850:11 *865:21 0.000109729
32 *852:13 *865:9 0.0211802
*RES
1 *897:sram_dat_o[15] *865:7 5.38427 
2 *865:7 *865:9 262.755 
3 *865:9 *865:19 6.6431 
4 *865:19 *865:21 205.725 
5 *865:21 *898:wbs_dat_i[15] 13.145 
*END

*D_NET *866 0.120572
*CONN
*I *898:wbs_dat_i[16] I *D CF_SRAM_1024x32_wb_wrapper
*I *897:sram_dat_o[16] O *D soc_sys
*CAP
1 *898:wbs_dat_i[16] 0.000962219
2 *897:sram_dat_o[16] 0.00218601
3 *866:21 0.00394615
4 *866:19 0.00337579
5 *866:9 0.00686713
6 *866:7 0.00866128
7 *866:9 *888:21 0.00197897
8 *866:19 *868:19 0.00147346
9 *866:21 *867:17 0.0208817
10 *866:21 *868:21 0.0220942
11 *897:sram_dat_i[16] *866:7 0.00136637
12 *897:sram_dat_i[17] *866:7 0.0005697
13 *898:wbs_adr_i[16] *898:wbs_dat_i[16] 0
14 *898:wbs_dat_i[10] *866:21 0.00381665
15 *39:29 *866:21 0
16 *141:19 *866:9 1.7635e-05
17 *657:21 *866:9 0
18 *685:9 *866:9 0.000348298
19 *692:9 *866:9 0.0150959
20 *737:11 *866:9 0.000707908
21 *796:7 *866:7 0.000385554
22 *797:7 *866:7 0.0010061
23 *823:15 *866:19 0.00145183
24 *827:21 *866:9 0.0228093
25 *828:7 *898:wbs_dat_i[16] 0
26 *829:7 *898:wbs_dat_i[16] 0
27 *840:9 *866:21 2.0514e-05
28 *850:13 *866:9 0
29 *857:9 *866:9 0.000153209
30 *861:19 *866:19 0.000235267
31 *862:13 *866:21 0.000160709
*RES
1 *897:sram_dat_o[16] *866:7 7.074 
2 *866:7 *866:9 270.405 
3 *866:9 *866:19 5.93637 
4 *866:19 *866:21 200.55 
5 *866:21 *898:wbs_dat_i[16] 16.97 
*END

*D_NET *867 0.119449
*CONN
*I *898:wbs_dat_i[17] I *D CF_SRAM_1024x32_wb_wrapper
*I *897:sram_dat_o[17] O *D soc_sys
*CAP
1 *898:wbs_dat_i[17] 0.000976919
2 *897:sram_dat_o[17] 0.00306683
3 *867:17 0.00426721
4 *867:15 0.00404573
5 *867:9 0.00470522
6 *867:7 0.00701662
7 *867:15 *886:9 0.000155606
8 *867:17 *868:21 0.00032969
9 *897:sram_dat_i[17] *867:7 0.00313563
10 *898:wbs_adr_i[17] *898:wbs_dat_i[17] 0
11 *898:wbs_dat_i[10] *867:17 0.00349831
12 *39:29 *867:17 0
13 *690:9 *867:9 0.00561862
14 *721:9 *867:9 0.00386343
15 *796:7 *867:7 0
16 *798:7 *867:7 0.00338284
17 *802:9 *867:9 0.0220879
18 *802:9 *867:15 0.000572945
19 *829:7 *898:wbs_dat_i[17] 0
20 *830:7 *898:wbs_dat_i[17] 0
21 *837:13 *867:9 0.00956234
22 *837:13 *867:15 0.00182803
23 *862:13 *867:17 2.21074e-05
24 *863:19 *867:15 0.00127075
25 *863:21 *867:17 0.01916
26 *866:21 *867:17 0.0208817
*RES
1 *897:sram_dat_o[17] *867:7 10.6865 
2 *867:7 *867:9 247.305 
3 *867:9 *867:15 29.6075 
4 *867:15 *867:17 197.445 
5 *867:17 *898:wbs_dat_i[17] 17.225 
*END

*D_NET *868 0.120521
*CONN
*I *898:wbs_dat_i[18] I *D CF_SRAM_1024x32_wb_wrapper
*I *897:sram_dat_o[18] O *D soc_sys
*CAP
1 *898:wbs_dat_i[18] 0.000938672
2 *897:sram_dat_o[18] 0.00169141
3 *868:21 0.00401101
4 *868:19 0.00355698
5 *868:9 0.00618522
6 *868:7 0.00739198
7 *868:9 *887:9 5.08992e-05
8 *897:sram_dat_i[18] *868:7 0.00190953
9 *898:wbs_dat_i[10] *868:19 0.000330387
10 *898:wbs_dat_i[10] *868:21 0.00261335
11 *898:wbs_dat_i[11] *868:21 0.000901247
12 *898:wbs_sel_i[3] *868:19 0.000156891
13 *651:31 *868:9 0.00245173
14 *675:9 *868:9 0.00693258
15 *686:9 *868:9 0.000895604
16 *741:25 *868:9 0.000814136
17 *799:5 *868:7 0.00190953
18 *823:15 *868:19 0.000321287
19 *823:17 *868:9 0.0220932
20 *826:19 *868:19 1.41981e-05
21 *830:7 *898:wbs_dat_i[18] 0
22 *831:7 *898:wbs_dat_i[18] 0
23 *840:9 *868:21 0.0232365
24 *840:19 *868:19 0.00138478
25 *848:23 *868:9 0.00659322
26 *861:19 *868:19 0.000239656
27 *866:19 *868:19 0.00147346
28 *866:21 *868:21 0.0220942
29 *867:17 *868:21 0.00032969
*RES
1 *897:sram_dat_o[18] *868:7 6.25827 
2 *868:7 *868:9 277.035 
3 *868:9 *868:19 6.30037 
4 *868:19 *868:21 210.555 
5 *868:21 *898:wbs_dat_i[18] 16.715 
*END

*D_NET *869 0.134981
*CONN
*I *898:wbs_dat_i[19] I *D CF_SRAM_1024x32_wb_wrapper
*I *897:sram_dat_o[19] O *D soc_sys
*CAP
1 *898:wbs_dat_i[19] 0.00127947
2 *897:sram_dat_o[19] 0.00127723
3 *869:15 0.00801927
4 *869:9 0.0128335
5 *869:7 0.0073709
6 *869:15 *871:15 0.0242939
7 *869:15 *887:15 0.000138282
8 *869:15 *890:15 0.000692394
9 *897:sram_dat_i[19] *869:7 0.00125502
10 *898:wbs_dat_i[11] *869:15 0
11 *898:wbs_sel_i[2] *869:15 0.00612807
12 *32:21 *869:15 1.95991e-05
13 *33:13 *869:15 0.00545034
14 *33:21 *869:15 0.00204131
15 *34:13 *869:15 0.00516143
16 *35:13 *869:15 0.00475817
17 *36:9 *869:15 0.00107843
18 *37:9 *869:15 0.00669621
19 *38:17 *869:15 0.00321539
20 *646:18 *869:9 0.0161187
21 *650:35 *869:9 0.0021766
22 *681:9 *869:9 0.00671369
23 *684:9 *869:9 0.0064482
24 *747:9 *869:9 0.00262093
25 *801:15 *869:7 0.00125502
26 *829:21 *869:9 0.000903676
27 *831:7 *898:wbs_dat_i[19] 0
28 *832:7 *898:wbs_dat_i[19] 0
29 *851:13 *869:9 0.000248297
30 *852:9 *869:15 0.00122069
31 *859:9 *869:9 0.00556582
*RES
1 *897:sram_dat_o[19] *869:7 4.51027 
2 *869:7 *869:9 285.705 
3 *869:9 *869:15 42.2325 
4 *869:15 *898:wbs_dat_i[19] 20.4525 
*END

*D_NET *870 0.0946894
*CONN
*I *898:wbs_dat_i[1] I *D CF_SRAM_1024x32_wb_wrapper
*I *897:sram_dat_o[1] O *D soc_sys
*CAP
1 *898:wbs_dat_i[1] 0.00310525
2 *897:sram_dat_o[1] 0.00275175
3 *870:13 0.00629734
4 *870:11 0.00594384
5 *870:13 *885:9 0.0189864
6 *897:sram_dat_i[1] *870:11 0.00371141
7 *898:wbs_adr_i[0] *898:wbs_dat_i[1] 4.70134e-05
8 *898:wbs_adr_i[1] *898:wbs_dat_i[1] 0
9 *726:9 *870:13 0.00124821
10 *762:15 *870:11 0.000800558
11 *781:13 *870:11 0.00100079
12 *793:17 *898:wbs_dat_i[1] 0.00223083
13 *796:13 *898:wbs_dat_i[1] 0.00243384
14 *800:7 *870:11 0.000182958
15 *816:9 *870:13 0.018308
16 *822:11 *898:wbs_dat_i[1] 0.0125044
17 *822:13 *870:13 0.000359757
18 *833:11 *898:wbs_dat_i[1] 0.0131506
19 *849:11 *898:wbs_dat_i[1] 0.000261731
20 *855:7 *870:11 0.00136484
*RES
1 *897:sram_dat_o[1] *870:11 9.2172 
2 *870:11 *870:13 213.285 
3 *870:13 *898:wbs_dat_i[1] 27.7642 
*END

*D_NET *871 0.13203
*CONN
*I *898:wbs_dat_i[20] I *D CF_SRAM_1024x32_wb_wrapper
*I *897:sram_dat_o[20] O *D soc_sys
*CAP
1 *898:wbs_dat_i[20] 0.00130287
2 *897:sram_dat_o[20] 0.00248311
3 *871:15 0.00546301
4 *871:9 0.0133276
5 *871:7 0.0116506
6 *898:wbs_dat_i[20] *880:27 2.90614e-05
7 *871:9 *889:9 0
8 *871:15 *872:15 0.0020645
9 *871:15 *890:15 0.0183935
10 *897:sram_dat_i[20] *871:7 0.00294451
11 *897:sram_dat_i[21] *871:7 0.00493174
12 *898:wbs_adr_i[21] *898:wbs_dat_i[20] 0
13 *32:13 *871:15 0.00573431
14 *32:19 *871:9 0
15 *38:9 *871:15 0.010512
16 *38:15 *871:9 0
17 *682:9 *871:9 0.00685049
18 *744:9 *871:9 0.011704
19 *802:7 *871:7 0.000492363
20 *818:9 *871:9 0
21 *830:13 *871:9 0.00970939
22 *832:7 *898:wbs_dat_i[20] 0
23 *856:9 *871:9 0
24 *862:9 *871:9 0.00014278
25 *869:15 *871:15 0.0242939
*RES
1 *897:sram_dat_o[20] *871:7 9.81253 
2 *871:7 *871:9 289.275 
3 *871:9 *871:15 37.8043 
4 *871:15 *898:wbs_dat_i[20] 20.9625 
*END

*D_NET *872 0.132491
*CONN
*I *898:wbs_dat_i[21] I *D CF_SRAM_1024x32_wb_wrapper
*I *897:sram_dat_o[21] O *D soc_sys
*CAP
1 *898:wbs_dat_i[21] 0.00141763
2 *897:sram_dat_o[21] 0.00155266
3 *872:15 0.00655514
4 *872:9 0.01073
5 *872:7 0.0071451
6 *872:9 *891:9 0.000140897
7 *872:15 *898:wbs_dat_i[8] 0.0176603
8 *872:15 *898:wbs_we_i 0.0148279
9 *872:15 *887:15 0.00141842
10 *872:15 *890:15 0.000261731
11 *897:sram_dat_i[11] *872:9 0.0015942
12 *897:sram_dat_i[21] *872:7 0.000504465
13 *898:wbs_adr_i[21] *898:wbs_dat_i[21] 0
14 *31:21 *872:15 0.00685071
15 *33:21 *872:15 0.000234348
16 *66:13 *872:15 0.00795105
17 *651:13 *872:9 0
18 *740:11 *872:9 0.000686775
19 *802:7 *872:7 0.000533839
20 *803:5 *872:7 0.00159804
21 *840:21 *872:9 0.0252027
22 *842:15 *898:wbs_dat_i[21] 2.35211e-05
23 *852:13 *872:9 0.000413668
24 *865:9 *872:9 0.0231236
25 *871:15 *872:15 0.0020645
*RES
1 *897:sram_dat_o[21] *872:7 5.326 
2 *872:7 *872:9 294.375 
3 *872:9 *872:15 43.1648 
4 *872:15 *898:wbs_dat_i[21] 23.0025 
*END

*D_NET *873 0.117901
*CONN
*I *898:wbs_dat_i[22] I *D CF_SRAM_1024x32_wb_wrapper
*I *897:sram_dat_o[22] O *D soc_sys
*CAP
1 *898:wbs_dat_i[22] 0.00165156
2 *897:sram_dat_o[22] 0.0132529
3 *873:9 0.0110457
4 *873:7 0.00939414
5 *873:5 0.0132529
6 *898:wbs_dat_i[22] *898:wbs_dat_i[24] 8.59615e-05
7 *898:wbs_dat_i[22] *898:wbs_dat_i[25] 0.0050059
8 *898:wbs_dat_i[22] *898:wbs_dat_i[26] 0.00019388
9 *873:5 *874:15 0.0231435
10 *873:5 *875:15 0.00412928
11 *873:9 *877:9 0.0244722
12 *897:sram_dat_i[22] *873:5 0.000175909
13 *897:sram_dat_i[24] *873:5 0.00282669
14 *898:wbs_adr_i[28] *898:wbs_dat_i[22] 0.000165845
15 *898:wbs_adr_i[31] *898:wbs_dat_i[22] 8.59615e-05
16 *74:79 *873:5 0
17 *107:21 *898:wbs_dat_i[22] 0.00166415
18 *803:5 *873:5 0.00188043
19 *804:7 *873:5 0.00369069
20 *805:13 *873:5 0
21 *839:12 *898:wbs_dat_i[22] 0.00103051
22 *843:14 *898:wbs_dat_i[22] 0.000667013
23 *846:8 *898:wbs_dat_i[22] 8.59615e-05
*RES
1 *897:sram_dat_o[22] *873:5 58.7227 
2 *873:5 *873:7 0.5 
3 *873:7 *873:9 273.465 
4 *873:9 *898:wbs_dat_i[22] 11.9339 
*END

*D_NET *874 0.105458
*CONN
*I *898:wbs_dat_i[23] I *D CF_SRAM_1024x32_wb_wrapper
*I *897:sram_dat_o[23] O *D soc_sys
*CAP
1 *898:wbs_dat_i[23] 0.00477731
2 *897:sram_dat_o[23] 0.00510661
3 *874:19 0.0219832
4 *874:15 0.0223125
5 *898:wbs_dat_i[23] *898:wbs_dat_i[27] 0.00244826
6 *874:15 *875:15 0.00952574
7 *897:sram_dat_i[22] *874:15 0.0065753
8 *897:sram_dat_i[23] *874:15 4.68079e-05
9 *898:wbs_adr_i[19] *898:wbs_dat_i[23] 9.28349e-05
10 *898:wbs_adr_i[22] *898:wbs_dat_i[23] 0.000787414
11 *898:wbs_adr_i[23] *898:wbs_dat_i[23] 0
12 *104:26 *874:15 0.000158282
13 *118:67 *874:15 0.000272891
14 *712:9 *874:15 0.000165638
15 *803:5 *874:15 8.86986e-05
16 *805:11 *874:15 0.000173676
17 *824:19 *898:wbs_dat_i[23] 3.99991e-05
18 *835:11 *898:wbs_dat_i[23] 0.0077589
19 *837:7 *898:wbs_dat_i[23] 0
20 *841:29 *898:wbs_dat_i[23] 0
21 *841:33 *874:19 0
22 *873:5 *874:15 0.0231435
*RES
1 *897:sram_dat_o[23] *874:15 40.5416 
2 *874:15 *874:19 47.3084 
3 *874:19 *898:wbs_dat_i[23] 17.0227 
*END

*D_NET *875 0.0977085
*CONN
*I *898:wbs_dat_i[24] I *D CF_SRAM_1024x32_wb_wrapper
*I *897:sram_dat_o[24] O *D soc_sys
*CAP
1 *898:wbs_dat_i[24] 0.0124588
2 *897:sram_dat_o[24] 0.0045426
3 *875:15 0.0169078
4 *875:11 0.00899158
5 *897:sram_dat_i[24] *875:11 0.000398191
6 *897:sram_dat_i[25] *875:11 7.37437e-05
7 *898:wbs_dat_i[22] *898:wbs_dat_i[24] 8.59615e-05
8 *74:79 *875:11 0.000932553
9 *107:21 *898:wbs_dat_i[24] 2.253e-05
10 *683:9 *875:11 0
11 *742:9 *875:11 0
12 *803:5 *875:15 0.026069
13 *804:9 *875:11 0
14 *806:15 *875:11 0.003452
15 *809:17 *898:wbs_dat_i[24] 0.0101188
16 *873:5 *875:15 0.00412928
17 *874:15 *875:15 0.00952574
*RES
1 *897:sram_dat_o[24] *875:11 20.0486 
2 *875:11 *875:15 38.9066 
3 *875:15 *898:wbs_dat_i[24] 46.9863 
*END

*D_NET *876 0.124601
*CONN
*I *898:wbs_dat_i[25] I *D CF_SRAM_1024x32_wb_wrapper
*I *897:sram_dat_o[25] O *D soc_sys
*CAP
1 *898:wbs_dat_i[25] 0.0007908
2 *897:sram_dat_o[25] 0.012934
3 *876:9 0.0105567
4 *876:7 0.00976589
5 *876:5 0.012934
6 *898:wbs_dat_i[25] *898:wbs_dat_i[26] 0.000244283
7 *876:5 *877:5 0
8 *876:5 *878:15 0.0297211
9 *897:sram_dat_i[25] *876:5 0.0106537
10 *898:wbs_dat_i[22] *898:wbs_dat_i[25] 0.0050059
11 *805:17 *876:9 0
12 *807:7 *876:5 0.000175909
13 *812:9 *876:9 0.0253079
14 *834:11 *898:wbs_dat_i[25] 0.00242608
15 *839:12 *898:wbs_dat_i[25] 0.000225757
16 *843:16 *876:9 0.00385907
*RES
1 *897:sram_dat_o[25] *876:5 57.7321 
2 *876:5 *876:7 0.5 
3 *876:7 *876:9 283.155 
4 *876:9 *898:wbs_dat_i[25] 8.32133 
*END

*D_NET *877 0.121818
*CONN
*I *898:wbs_dat_i[26] I *D CF_SRAM_1024x32_wb_wrapper
*I *897:sram_dat_o[26] O *D soc_sys
*CAP
1 *898:wbs_dat_i[26] 0.0014854
2 *897:sram_dat_o[26] 0.0154015
3 *877:9 0.00576092
4 *877:7 0.00427552
5 *877:5 0.0154015
6 *898:wbs_dat_i[26] *898:wbs_dat_i[28] 0.00379701
7 *898:wbs_dat_i[26] *883:21 0.00012905
8 *877:5 *878:15 0.00137991
9 *877:5 *880:15 0.00604811
10 *877:9 *879:9 0.0257324
11 *897:sram_dat_i[26] *877:5 0.001575
12 *897:sram_dat_i[27] *877:5 0.00879433
13 *898:wbs_adr_i[19] *898:wbs_dat_i[26] 0.000697403
14 *898:wbs_adr_i[26] *898:wbs_dat_i[26] 0
15 *898:wbs_dat_i[22] *898:wbs_dat_i[26] 0.00019388
16 *898:wbs_dat_i[25] *898:wbs_dat_i[26] 0.000244283
17 *109:21 *898:wbs_dat_i[26] 0.000301031
18 *114:29 *898:wbs_dat_i[26] 0.000574568
19 *808:7 *877:5 0.000979188
20 *809:7 *877:5 0
21 *809:17 *898:wbs_dat_i[26] 0.00020957
22 *834:11 *898:wbs_dat_i[26] 0.0038269
23 *840:7 *898:wbs_dat_i[26] 0
24 *843:14 *898:wbs_dat_i[26] 0.000538618
25 *873:9 *877:9 0.0244722
26 *876:5 *877:5 0
*RES
1 *897:sram_dat_o[26] *877:5 58.6644 
2 *877:5 *877:7 0.5 
3 *877:7 *877:9 287.745 
4 *877:9 *898:wbs_dat_i[26] 9.4521 
*END

*D_NET *878 0.111519
*CONN
*I *898:wbs_dat_i[27] I *D CF_SRAM_1024x32_wb_wrapper
*I *897:sram_dat_o[27] O *D soc_sys
*CAP
1 *898:wbs_dat_i[27] 0.00348012
2 *897:sram_dat_o[27] 0.000342968
3 *878:19 0.021498
4 *878:15 0.02431
5 *878:11 0.00663511
6 *878:11 *880:11 5.10462e-05
7 *878:11 *880:15 5.83844e-05
8 *897:sram_dat_i[27] *878:11 0.000469016
9 *897:sram_dat_i[27] *878:15 0.0103254
10 *898:wbs_adr_i[20] *878:19 0
11 *898:wbs_adr_i[22] *898:wbs_dat_i[27] 0.00216188
12 *898:wbs_adr_i[27] *898:wbs_dat_i[27] 0
13 *898:wbs_dat_i[23] *898:wbs_dat_i[27] 0.00244826
14 *65:13 *898:wbs_dat_i[27] 0.000479344
15 *104:26 *878:11 6.84894e-05
16 *113:21 *898:wbs_dat_i[27] 0.000442118
17 *142:26 *898:wbs_dat_i[27] 0.000439362
18 *712:9 *878:11 0.000257249
19 *804:13 *898:wbs_dat_i[27] 0.000101633
20 *806:21 *898:wbs_dat_i[27] 0.000275007
21 *807:7 *878:15 0.00598565
22 *807:13 *898:wbs_dat_i[27] 0.000407576
23 *809:7 *878:11 0.000181672
24 *840:7 *898:wbs_dat_i[27] 0
25 *841:29 *898:wbs_dat_i[27] 0
26 *876:5 *878:15 0.0297211
27 *877:5 *878:15 0.00137991
*RES
1 *897:sram_dat_o[27] *878:11 7.28753 
2 *878:11 *878:15 44.9663 
3 *878:15 *878:19 49.1172 
4 *878:19 *898:wbs_dat_i[27] 11.3564 
*END

*D_NET *879 0.129348
*CONN
*I *898:wbs_dat_i[28] I *D CF_SRAM_1024x32_wb_wrapper
*I *897:sram_dat_o[28] O *D soc_sys
*CAP
1 *898:wbs_dat_i[28] 0.000789909
2 *897:sram_dat_o[28] 0.0128246
3 *879:9 0.00501805
4 *879:7 0.00422814
5 *879:5 0.0128246
6 *898:wbs_dat_i[28] *898:wbs_dat_i[30] 0.000368752
7 *898:wbs_dat_i[28] *883:21 0.000121244
8 *879:9 *898:wbs_dat_i[30] 4.36573e-06
9 *879:9 *882:9 0.026277
10 *897:sram_dat_i[28] *879:5 0.0117465
11 *897:sram_dat_i[29] *879:5 0.00205084
12 *898:wbs_adr_i[19] *898:wbs_dat_i[28] 0.00368726
13 *898:wbs_dat_i[26] *898:wbs_dat_i[28] 0.00379701
14 *799:9 *879:9 1.02396e-05
15 *809:7 *879:5 0.00342558
16 *810:7 *879:5 0.0164415
17 *841:29 *898:wbs_dat_i[28] 0
18 *842:15 *898:wbs_dat_i[28] 0
19 *877:9 *879:9 0.0257324
*RES
1 *897:sram_dat_o[28] *879:5 58.6061 
2 *879:5 *879:7 0.5 
3 *879:7 *879:9 294.375 
4 *879:9 *898:wbs_dat_i[28] 8.15583 
*END

*D_NET *880 0.0928984
*CONN
*I *898:wbs_dat_i[29] I *D CF_SRAM_1024x32_wb_wrapper
*I *897:sram_dat_o[29] O *D soc_sys
*CAP
1 *898:wbs_dat_i[29] 0.000902816
2 *897:sram_dat_o[29] 0.000357772
3 *880:27 0.00134418
4 *880:19 0.0184417
5 *880:15 0.0277114
6 *880:11 0.0100689
7 *898:wbs_dat_i[29] *883:21 0.00430502
8 *897:sram_dat_i[27] *880:15 2.38557e-05
9 *897:sram_dat_i[29] *880:11 0.000154221
10 *898:wbs_adr_i[19] *898:wbs_dat_i[29] 0.000433248
11 *898:wbs_adr_i[29] *898:wbs_dat_i[29] 0.000112622
12 *898:wbs_adr_i[30] *898:wbs_dat_i[29] 0
13 *898:wbs_dat_i[20] *880:27 2.90614e-05
14 *104:26 *880:11 0.000575153
15 *712:9 *880:11 0.000198972
16 *808:7 *880:15 0.000548201
17 *808:21 *898:wbs_dat_i[29] 0.000419595
18 *809:7 *880:15 0.0117486
19 *812:5 *880:11 0.000154221
20 *834:11 *880:27 4.05129e-06
21 *839:12 *880:27 0.00210929
22 *841:29 *880:27 0.000532647
23 *842:15 *898:wbs_dat_i[29] 0.00407609
24 *842:19 *880:27 0.00211305
25 *845:9 *898:wbs_dat_i[29] 0.000231744
26 *845:27 *880:19 0.000144476
27 *877:5 *880:15 0.00604811
28 *878:11 *880:11 5.10462e-05
29 *878:11 *880:15 5.83844e-05
*RES
1 *897:sram_dat_o[29] *880:11 8.24927 
2 *880:11 *880:15 43.1601 
3 *880:15 *880:19 49.4617 
4 *880:19 *880:27 6.90777 
5 *880:27 *898:wbs_dat_i[29] 49.355 
*END

*D_NET *881 0.0876113
*CONN
*I *898:wbs_dat_i[2] I *D CF_SRAM_1024x32_wb_wrapper
*I *897:sram_dat_o[2] O *D soc_sys
*CAP
1 *898:wbs_dat_i[2] 0.00378573
2 *897:sram_dat_o[2] 0.00121009
3 *881:9 0.00730114
4 *881:7 0.00472549
5 *898:wbs_dat_i[2] *888:21 0.00361483
6 *897:sram_dat_i[2] *881:7 0.000612006
7 *898:wbs_adr_i[2] *898:wbs_dat_i[2] 0.000432089
8 *898:wbs_adr_i[3] *898:wbs_dat_i[2] 0.000429592
9 *898:wbs_adr_i[5] *898:wbs_dat_i[2] 0.0139562
10 *898:wbs_stb_i *898:wbs_dat_i[2] 0.00458245
11 *540:50 *898:wbs_dat_i[2] 0.00324783
12 *650:35 *898:wbs_dat_i[2] 0.00015711
13 *650:35 *881:9 0.00148356
14 *651:31 *898:wbs_dat_i[2] 0.000270343
15 *676:15 *881:7 0.00108584
16 *711:9 *881:9 0.000674035
17 *736:11 *881:9 0.000697036
18 *747:9 *881:9 0.000382065
19 *788:13 *881:9 0.0173651
20 *819:19 *898:wbs_dat_i[2] 0.00205822
21 *839:12 *898:wbs_dat_i[2] 0.000497596
22 *856:7 *881:7 0.00115039
23 *859:9 *881:9 0.0178925
*RES
1 *897:sram_dat_o[2] *881:7 4.2772 
2 *881:7 *881:9 210.735 
3 *881:9 *898:wbs_dat_i[2] 27.0249 
*END

*D_NET *882 0.109685
*CONN
*I *898:wbs_dat_i[30] I *D CF_SRAM_1024x32_wb_wrapper
*I *897:sram_dat_o[30] O *D soc_sys
*CAP
1 *898:wbs_dat_i[30] 0.000793862
2 *897:sram_dat_o[30] 0.0111407
3 *882:9 0.00646911
4 *882:7 0.00567525
5 *882:5 0.0111407
6 *898:wbs_dat_i[30] *883:21 0.000581981
7 *897:sram_dat_i[29] *882:5 0
8 *897:sram_dat_i[30] *882:5 0.0143931
9 *897:sram_dat_i[31] *882:5 0.0112989
10 *898:wbs_adr_i[30] *898:wbs_dat_i[30] 0
11 *898:wbs_dat_i[28] *898:wbs_dat_i[30] 0.000368752
12 *114:29 *898:wbs_dat_i[30] 0.00240864
13 *799:9 *898:wbs_dat_i[30] 1.7635e-05
14 *799:9 *882:9 0.0137515
15 *803:9 *882:9 0
16 *805:17 *882:9 0
17 *812:5 *882:5 0.00437339
18 *813:11 *882:5 0.000989727
19 *845:7 *898:wbs_dat_i[30] 0
20 *879:9 *898:wbs_dat_i[30] 4.36573e-06
21 *879:9 *882:9 0.026277
*RES
1 *897:sram_dat_o[30] *882:5 58.5479 
2 *882:5 *882:7 0.5 
3 *882:7 *882:9 299.985 
4 *882:9 *898:wbs_dat_i[30] 27.7225 
*END

*D_NET *883 0.111703
*CONN
*I *898:wbs_dat_i[31] I *D CF_SRAM_1024x32_wb_wrapper
*I *897:sram_dat_o[31] O *D soc_sys
*CAP
1 *898:wbs_dat_i[31] 0.000115693
2 *897:sram_dat_o[31] 0.00698471
3 *883:21 0.00108883
4 *883:19 0.00101121
5 *883:9 0.0189609
6 *883:7 0.0259075
7 *897:sram_dat_i[31] *883:7 0.0181179
8 *898:wbs_adr_i[19] *883:21 0.000119028
9 *898:wbs_adr_i[29] *883:9 0.000133107
10 *898:wbs_adr_i[29] *883:19 1.66925e-05
11 *898:wbs_dat_i[26] *883:21 0.00012905
12 *898:wbs_dat_i[28] *883:21 0.000121244
13 *898:wbs_dat_i[29] *883:21 0.00430502
14 *898:wbs_dat_i[30] *883:21 0.000581981
15 *114:29 *883:21 0.00112515
16 *142:26 *883:21 0
17 *808:21 *883:21 0.0029695
18 *810:9 *883:9 0
19 *813:13 *883:7 0.0298218
20 *834:11 *883:19 3.99991e-05
21 *835:11 *883:19 2.03593e-05
22 *838:11 *883:19 4.60198e-05
23 *845:7 *898:wbs_dat_i[31] 0
24 *845:9 *883:21 8.73244e-05
*RES
1 *897:sram_dat_o[31] *883:7 47.8315 
2 *883:7 *883:9 51.2012 
3 *883:9 *883:19 3.55463 
4 *883:19 *883:21 49.44 
5 *883:21 *898:wbs_dat_i[31] 3.455 
*END

*D_NET *884 0.082259
*CONN
*I *898:wbs_dat_i[3] I *D CF_SRAM_1024x32_wb_wrapper
*I *897:sram_dat_o[3] O *D soc_sys
*CAP
1 *898:wbs_dat_i[3] 0.00298298
2 *897:sram_dat_o[3] 0.00443989
3 *884:9 0.0108972
4 *884:7 0.0123541
5 *897:sram_dat_i[3] *884:7 0.00341656
6 *898:wbs_adr_i[3] *898:wbs_dat_i[3] 0
7 *898:wbs_sel_i[2] *898:wbs_dat_i[3] 0
8 *898:wbs_sel_i[3] *898:wbs_dat_i[3] 0
9 *141:21 *898:wbs_dat_i[3] 0.00245934
10 *815:7 *884:7 0.000336854
11 *824:19 *898:wbs_dat_i[3] 0.00278502
12 *825:19 *898:wbs_dat_i[3] 0.000210012
13 *847:11 *898:wbs_dat_i[3] 0
14 *849:11 *898:wbs_dat_i[3] 0.00762492
15 *849:13 *884:9 0.0199016
16 *853:11 *898:wbs_dat_i[3] 0.0127052
17 *857:7 *884:7 0.00214546
*RES
1 *897:sram_dat_o[3] *884:7 12.3763 
2 *884:7 *884:9 223.995 
3 *884:9 *898:wbs_dat_i[3] 29.4858 
*END

*D_NET *885 0.101432
*CONN
*I *898:wbs_dat_i[4] I *D CF_SRAM_1024x32_wb_wrapper
*I *897:sram_dat_o[4] O *D soc_sys
*CAP
1 *898:wbs_dat_i[4] 0.00409325
2 *897:sram_dat_o[4] 0.00292457
3 *885:9 0.00808331
4 *885:7 0.00691463
5 *898:wbs_dat_i[4] *898:wbs_dat_i[5] 0.0145587
6 *897:sram_dat_i[4] *885:7 0.00178619
7 *898:wbs_adr_i[4] *898:wbs_dat_i[4] 0
8 *898:wbs_dat_i[0] *898:wbs_dat_i[4] 0.0124422
9 *898:wbs_dat_i[11] *898:wbs_dat_i[4] 0.0026373
10 *898:wbs_sel_i[3] *898:wbs_dat_i[4] 0.000231623
11 *39:29 *898:wbs_dat_i[4] 0.00318572
12 *726:9 *885:9 0.000156716
13 *738:9 *885:9 0.000684882
14 *795:19 *885:9 0
15 *815:7 *885:7 0.000420344
16 *816:7 *885:7 0.00270296
17 *816:9 *885:9 0.000625438
18 *822:13 *885:9 1.82571e-05
19 *825:21 *885:9 0.0203034
20 *848:21 *898:wbs_dat_i[4] 0
21 *851:11 *898:wbs_dat_i[4] 0.000505422
22 *856:9 *885:9 0
23 *860:9 *885:9 0.000170275
24 *870:13 *885:9 0.0189864
*RES
1 *897:sram_dat_o[4] *885:7 8.9968 
2 *885:7 *885:9 236.235 
3 *885:9 *898:wbs_dat_i[4] 41.5185 
*END

*D_NET *886 0.101243
*CONN
*I *898:wbs_dat_i[5] I *D CF_SRAM_1024x32_wb_wrapper
*I *897:sram_dat_o[5] O *D soc_sys
*CAP
1 *898:wbs_dat_i[5] 0.0039558
2 *897:sram_dat_o[5] 0.0038273
3 *886:9 0.00826381
4 *886:7 0.00813531
5 *886:9 *889:9 0
6 *897:sram_dat_i[5] *886:7 0.0031831
7 *897:sram_dat_i[6] *886:7 0.000218338
8 *898:wbs_dat_i[11] *898:wbs_dat_i[5] 0.000303532
9 *898:wbs_dat_i[4] *898:wbs_dat_i[5] 0.0145587
10 *713:9 *886:9 0
11 *721:9 *886:9 0.00055234
12 *725:9 *886:9 0.00111061
13 *780:9 *886:9 0.000950921
14 *800:9 *886:9 9.62021e-05
15 *807:9 *886:9 0.0202295
16 *814:9 *886:9 0.0190491
17 *817:7 *886:7 0.00131267
18 *818:7 *886:7 0
19 *837:13 *886:9 0.000213271
20 *848:21 *898:wbs_dat_i[5] 0
21 *849:11 *898:wbs_dat_i[5] 0
22 *851:11 *898:wbs_dat_i[5] 0.0151266
23 *867:15 *886:9 0.000155606
*RES
1 *897:sram_dat_o[5] *886:7 10.4535 
2 *886:7 *886:9 239.805 
3 *886:9 *898:wbs_dat_i[5] 41.4458 
*END

*D_NET *887 0.101596
*CONN
*I *898:wbs_dat_i[6] I *D CF_SRAM_1024x32_wb_wrapper
*I *897:sram_dat_o[6] O *D soc_sys
*CAP
1 *898:wbs_dat_i[6] 0.00152788
2 *897:sram_dat_o[6] 0.00189833
3 *887:15 0.00434486
4 *887:9 0.00786086
5 *887:7 0.00694221
6 *887:15 *898:wbs_dat_i[8] 0.0164891
7 *887:15 *890:15 0.0178208
8 *897:sram_dat_i[6] *887:7 0.00147975
9 *898:wbs_adr_i[6] *898:wbs_dat_i[6] 0
10 *31:21 *887:15 0.00397904
11 *33:21 *887:15 0.000446274
12 *67:231 *887:7 0.000630446
13 *143:45 *887:9 5.96734e-05
14 *686:9 *887:9 0.00283397
15 *757:19 *887:9 0.000382941
16 *818:7 *887:7 0.00188635
17 *823:17 *887:9 0.0211077
18 *849:11 *898:wbs_dat_i[6] 0
19 *850:11 *898:wbs_dat_i[6] 0
20 *850:13 *887:9 0.0102981
21 *868:9 *887:9 5.08992e-05
22 *869:15 *887:15 0.000138282
23 *872:15 *887:15 0.00141842
*RES
1 *897:sram_dat_o[6] *887:7 6.3748 
2 *887:7 *887:9 247.455 
3 *887:9 *887:15 29.006 
4 *887:15 *898:wbs_dat_i[6] 21.9825 
*END

*D_NET *888 0.110296
*CONN
*I *898:wbs_dat_i[7] I *D CF_SRAM_1024x32_wb_wrapper
*I *897:sram_dat_o[7] O *D soc_sys
*CAP
1 *898:wbs_dat_i[7] 0
2 *897:sram_dat_o[7] 0.0311708
3 *888:21 0.0311708
4 *888:21 *889:7 0
5 *897:sram_dat_i[7] *888:21 0.00135091
6 *897:sram_dat_i[8] *888:21 0.000529759
7 *898:wbs_adr_i[2] *888:21 0.0031872
8 *898:wbs_adr_i[3] *888:21 0.00353918
9 *898:wbs_adr_i[5] *888:21 0.00338535
10 *898:wbs_dat_i[2] *888:21 0.00361483
11 *898:wbs_sel_i[0] *888:21 0.00138265
12 *898:wbs_stb_i *888:21 0.0032818
13 *107:21 *888:21 0.00165734
14 *540:50 *888:21 0.000158334
15 *541:27 *888:21 0.000442567
16 *651:31 *888:21 0
17 *657:21 *888:21 0.000265994
18 *658:21 *888:21 0
19 *692:9 *888:21 0.00139407
20 *696:9 *888:21 0.00028583
21 *704:9 *888:21 0.000779744
22 *715:9 *888:21 0.000602243
23 *728:9 *888:21 0.000824123
24 *737:11 *888:21 0.00920671
25 *757:19 *888:21 0.00211601
26 *758:23 *888:21 0.0038355
27 *808:19 *888:21 0.000434461
28 *818:7 *888:21 0.00033223
29 *819:7 *888:21 0.000461308
30 *819:19 *888:21 0.000410744
31 *827:21 *888:21 0.00188543
32 *838:11 *888:21 0.000293372
33 *839:12 *888:21 0.000317767
34 *866:9 *888:21 0.00197897
*RES
1 *897:sram_dat_o[7] *888:21 49.8702 
2 *888:21 *898:wbs_dat_i[7] 0.5 
*END

*D_NET *889 0.105875
*CONN
*I *898:wbs_dat_i[8] I *D CF_SRAM_1024x32_wb_wrapper
*I *897:sram_dat_o[8] O *D soc_sys
*CAP
1 *898:wbs_dat_i[8] 0.0040577
2 *897:sram_dat_o[8] 0.00355303
3 *889:9 0.0114769
4 *889:7 0.0109722
5 *898:wbs_dat_i[8] *890:15 0.000669928
6 *897:sram_dat_i[8] *889:7 0.00158207
7 *898:wbs_adr_i[8] *898:wbs_dat_i[8] 0
8 *31:21 *898:wbs_dat_i[8] 0.0040077
9 *713:9 *889:9 0.0110247
10 *800:9 *889:9 0
11 *818:7 *889:7 0
12 *820:7 *889:7 0.00307805
13 *851:11 *898:wbs_dat_i[8] 0
14 *852:9 *898:wbs_dat_i[8] 0
15 *862:9 *889:9 0.0213038
16 *871:9 *889:9 0
17 *872:15 *898:wbs_dat_i[8] 0.0176603
18 *886:9 *889:9 0
19 *887:15 *898:wbs_dat_i[8] 0.0164891
20 *888:21 *889:7 0
*RES
1 *897:sram_dat_o[8] *889:7 10.0456 
2 *889:7 *889:9 254.085 
3 *889:9 *898:wbs_dat_i[8] 49.5757 
*END

*D_NET *890 0.103556
*CONN
*I *898:wbs_dat_i[9] I *D CF_SRAM_1024x32_wb_wrapper
*I *897:sram_dat_o[9] O *D soc_sys
*CAP
1 *898:wbs_dat_i[9] 0.00146728
2 *897:sram_dat_o[9] 0.00271737
3 *890:15 0.00433438
4 *890:9 0.0107156
5 *890:7 0.0105659
6 *897:sram_dat_i[10] *890:7 0.000432384
7 *897:sram_dat_i[9] *890:7 0.0024338
8 *898:wbs_adr_i[9] *898:wbs_dat_i[9] 0
9 *898:wbs_dat_i[8] *890:15 0.000669928
10 *39:35 *890:9 0
11 *42:13 *890:9 0
12 *110:19 *890:9 0
13 *142:24 *890:9 0
14 *674:9 *890:9 0.00466338
15 *695:9 *890:9 0
16 *707:9 *890:9 0
17 *729:9 *890:9 0.00129958
18 *746:9 *890:9 0.00241986
19 *783:17 *890:9 0
20 *790:17 *890:7 0.000971687
21 *827:19 *890:9 0
22 *844:17 *890:9 3.05916e-05
23 *852:9 *898:wbs_dat_i[9] 0
24 *853:11 *898:wbs_dat_i[9] 0
25 *853:13 *890:9 0.0215635
26 *860:7 *890:7 0
27 *861:19 *890:9 0.00210265
28 *869:15 *890:15 0.000692394
29 *871:15 *890:15 0.0183935
30 *872:15 *890:15 0.000261731
31 *887:15 *890:15 0.0178208
*RES
1 *897:sram_dat_o[9] *890:7 8.06453 
2 *890:7 *890:9 256.125 
3 *890:9 *890:15 29.9383 
4 *890:15 *898:wbs_dat_i[9] 21.4725 
*END

*D_NET *891 0.0847872
*CONN
*I *898:wbs_we_i I *D CF_SRAM_1024x32_wb_wrapper
*I *897:sram_we_o O *D soc_sys
*CAP
1 *898:wbs_we_i 0.00379493
2 *897:sram_we_o 0.00194143
3 *891:9 0.012131
4 *891:7 0.0102775
5 *897:sram_dat_i[0] *891:7 0.000646921
6 *897:sram_dat_i[11] *891:9 0.00106786
7 *898:wbs_adr_i[0] *898:wbs_we_i 0
8 *898:wbs_dat_i[0] *898:wbs_we_i 0
9 *898:wbs_stb_i *898:wbs_we_i 0
10 *31:21 *898:wbs_we_i 0.00353076
11 *66:13 *898:wbs_we_i 0.0148279
12 *651:31 *891:9 0
13 *691:9 *891:9 0
14 *709:9 *891:9 0
15 *740:11 *891:9 0.000665015
16 *789:7 *891:7 0.000169128
17 *848:23 *891:9 0
18 *852:13 *891:9 0.0192695
19 *858:7 *891:7 0.00149639
20 *872:9 *891:9 0.000140897
21 *872:15 *898:wbs_we_i 0.0148279
*RES
1 *897:sram_we_o *891:7 5.5008 
2 *891:7 *891:9 223.485 
3 *891:9 *898:wbs_we_i 46.4005 
*END
