*SPEF "ieee 1481-1999"
*DESIGN "user_project_wrapper"
*DATE "14:57:09 Tuesday September 22, 2026"
*VENDOR "The OpenROAD Project"
*PROGRAM "OpenROAD"
*VERSION "edf00dff99f6c40d67a30c0e22a8191c5d2ed9d6"
*DESIGN_FLOW "NAME_SCOPE LOCAL" "PIN_CAP NONE"
*DIVIDER /
*DELIMITER :
*BUS_DELIMITER []
*T_UNIT 1 NS
*C_UNIT 1 PF
*R_UNIT 1 OHM
*L_UNIT 1 HENRY

*NAME_MAP
*1 analog_io[0]
*2 analog_io[10]
*3 analog_io[11]
*4 analog_io[12]
*5 analog_io[13]
*6 analog_io[14]
*7 analog_io[15]
*8 analog_io[16]
*9 analog_io[17]
*10 analog_io[18]
*11 analog_io[19]
*12 analog_io[1]
*13 analog_io[20]
*14 analog_io[21]
*15 analog_io[22]
*16 analog_io[23]
*17 analog_io[24]
*18 analog_io[25]
*19 analog_io[26]
*20 analog_io[27]
*21 analog_io[28]
*22 analog_io[2]
*23 analog_io[3]
*24 analog_io[4]
*25 analog_io[5]
*26 analog_io[6]
*27 analog_io[7]
*28 analog_io[8]
*29 analog_io[9]
*30 io_in[0]
*31 io_in[10]
*32 io_in[11]
*33 io_in[12]
*34 io_in[13]
*35 io_in[14]
*36 io_in[15]
*37 io_in[16]
*38 io_in[17]
*39 io_in[18]
*40 io_in[19]
*41 io_in[1]
*42 io_in[20]
*43 io_in[21]
*44 io_in[22]
*45 io_in[23]
*46 io_in[24]
*47 io_in[25]
*48 io_in[26]
*49 io_in[27]
*50 io_in[28]
*51 io_in[29]
*52 io_in[2]
*53 io_in[30]
*54 io_in[31]
*55 io_in[32]
*56 io_in[33]
*57 io_in[34]
*58 io_in[35]
*59 io_in[36]
*60 io_in[37]
*61 io_in[3]
*62 io_in[4]
*63 io_in[5]
*64 io_in[6]
*65 io_in[7]
*66 io_in[8]
*67 io_in[9]
*68 io_oeb[0]
*69 io_oeb[10]
*70 io_oeb[11]
*71 io_oeb[12]
*72 io_oeb[13]
*73 io_oeb[14]
*74 io_oeb[15]
*75 io_oeb[16]
*76 io_oeb[17]
*77 io_oeb[18]
*78 io_oeb[19]
*79 io_oeb[1]
*80 io_oeb[20]
*81 io_oeb[21]
*82 io_oeb[22]
*83 io_oeb[23]
*84 io_oeb[24]
*85 io_oeb[25]
*86 io_oeb[26]
*87 io_oeb[27]
*88 io_oeb[28]
*89 io_oeb[29]
*90 io_oeb[2]
*91 io_oeb[30]
*92 io_oeb[31]
*93 io_oeb[32]
*94 io_oeb[33]
*95 io_oeb[34]
*96 io_oeb[35]
*97 io_oeb[36]
*98 io_oeb[37]
*99 io_oeb[3]
*100 io_oeb[4]
*101 io_oeb[5]
*102 io_oeb[6]
*103 io_oeb[7]
*104 io_oeb[8]
*105 io_oeb[9]
*106 io_out[0]
*107 io_out[10]
*108 io_out[11]
*109 io_out[12]
*110 io_out[13]
*111 io_out[14]
*112 io_out[15]
*113 io_out[16]
*114 io_out[17]
*115 io_out[18]
*116 io_out[19]
*117 io_out[1]
*118 io_out[20]
*119 io_out[21]
*120 io_out[22]
*121 io_out[23]
*122 io_out[24]
*123 io_out[25]
*124 io_out[26]
*125 io_out[27]
*126 io_out[28]
*127 io_out[29]
*128 io_out[2]
*129 io_out[30]
*130 io_out[31]
*131 io_out[32]
*132 io_out[33]
*133 io_out[34]
*134 io_out[35]
*135 io_out[36]
*136 io_out[37]
*137 io_out[3]
*138 io_out[4]
*139 io_out[5]
*140 io_out[6]
*141 io_out[7]
*142 io_out[8]
*143 io_out[9]
*144 la_data_in[0]
*145 la_data_in[100]
*146 la_data_in[101]
*147 la_data_in[102]
*148 la_data_in[103]
*149 la_data_in[104]
*150 la_data_in[105]
*151 la_data_in[106]
*152 la_data_in[107]
*153 la_data_in[108]
*154 la_data_in[109]
*155 la_data_in[10]
*156 la_data_in[110]
*157 la_data_in[111]
*158 la_data_in[112]
*159 la_data_in[113]
*160 la_data_in[114]
*161 la_data_in[115]
*162 la_data_in[116]
*163 la_data_in[117]
*164 la_data_in[118]
*165 la_data_in[119]
*166 la_data_in[11]
*167 la_data_in[120]
*168 la_data_in[121]
*169 la_data_in[122]
*170 la_data_in[123]
*171 la_data_in[124]
*172 la_data_in[125]
*173 la_data_in[126]
*174 la_data_in[127]
*175 la_data_in[12]
*176 la_data_in[13]
*177 la_data_in[14]
*178 la_data_in[15]
*179 la_data_in[16]
*180 la_data_in[17]
*181 la_data_in[18]
*182 la_data_in[19]
*183 la_data_in[1]
*184 la_data_in[20]
*185 la_data_in[21]
*186 la_data_in[22]
*187 la_data_in[23]
*188 la_data_in[24]
*189 la_data_in[25]
*190 la_data_in[26]
*191 la_data_in[27]
*192 la_data_in[28]
*193 la_data_in[29]
*194 la_data_in[2]
*195 la_data_in[30]
*196 la_data_in[31]
*197 la_data_in[32]
*198 la_data_in[33]
*199 la_data_in[34]
*200 la_data_in[35]
*201 la_data_in[36]
*202 la_data_in[37]
*203 la_data_in[38]
*204 la_data_in[39]
*205 la_data_in[3]
*206 la_data_in[40]
*207 la_data_in[41]
*208 la_data_in[42]
*209 la_data_in[43]
*210 la_data_in[44]
*211 la_data_in[45]
*212 la_data_in[46]
*213 la_data_in[47]
*214 la_data_in[48]
*215 la_data_in[49]
*216 la_data_in[4]
*217 la_data_in[50]
*218 la_data_in[51]
*219 la_data_in[52]
*220 la_data_in[53]
*221 la_data_in[54]
*222 la_data_in[55]
*223 la_data_in[56]
*224 la_data_in[57]
*225 la_data_in[58]
*226 la_data_in[59]
*227 la_data_in[5]
*228 la_data_in[60]
*229 la_data_in[61]
*230 la_data_in[62]
*231 la_data_in[63]
*232 la_data_in[64]
*233 la_data_in[65]
*234 la_data_in[66]
*235 la_data_in[67]
*236 la_data_in[68]
*237 la_data_in[69]
*238 la_data_in[6]
*239 la_data_in[70]
*240 la_data_in[71]
*241 la_data_in[72]
*242 la_data_in[73]
*243 la_data_in[74]
*244 la_data_in[75]
*245 la_data_in[76]
*246 la_data_in[77]
*247 la_data_in[78]
*248 la_data_in[79]
*249 la_data_in[7]
*250 la_data_in[80]
*251 la_data_in[81]
*252 la_data_in[82]
*253 la_data_in[83]
*254 la_data_in[84]
*255 la_data_in[85]
*256 la_data_in[86]
*257 la_data_in[87]
*258 la_data_in[88]
*259 la_data_in[89]
*260 la_data_in[8]
*261 la_data_in[90]
*262 la_data_in[91]
*263 la_data_in[92]
*264 la_data_in[93]
*265 la_data_in[94]
*266 la_data_in[95]
*267 la_data_in[96]
*268 la_data_in[97]
*269 la_data_in[98]
*270 la_data_in[99]
*271 la_data_in[9]
*272 la_data_out[0]
*273 la_data_out[100]
*274 la_data_out[101]
*275 la_data_out[102]
*276 la_data_out[103]
*277 la_data_out[104]
*278 la_data_out[105]
*279 la_data_out[106]
*280 la_data_out[107]
*281 la_data_out[108]
*282 la_data_out[109]
*283 la_data_out[10]
*284 la_data_out[110]
*285 la_data_out[111]
*286 la_data_out[112]
*287 la_data_out[113]
*288 la_data_out[114]
*289 la_data_out[115]
*290 la_data_out[116]
*291 la_data_out[117]
*292 la_data_out[118]
*293 la_data_out[119]
*294 la_data_out[11]
*295 la_data_out[120]
*296 la_data_out[121]
*297 la_data_out[122]
*298 la_data_out[123]
*299 la_data_out[124]
*300 la_data_out[125]
*301 la_data_out[126]
*302 la_data_out[127]
*303 la_data_out[12]
*304 la_data_out[13]
*305 la_data_out[14]
*306 la_data_out[15]
*307 la_data_out[16]
*308 la_data_out[17]
*309 la_data_out[18]
*310 la_data_out[19]
*311 la_data_out[1]
*312 la_data_out[20]
*313 la_data_out[21]
*314 la_data_out[22]
*315 la_data_out[23]
*316 la_data_out[24]
*317 la_data_out[25]
*318 la_data_out[26]
*319 la_data_out[27]
*320 la_data_out[28]
*321 la_data_out[29]
*322 la_data_out[2]
*323 la_data_out[30]
*324 la_data_out[31]
*325 la_data_out[32]
*326 la_data_out[33]
*327 la_data_out[34]
*328 la_data_out[35]
*329 la_data_out[36]
*330 la_data_out[37]
*331 la_data_out[38]
*332 la_data_out[39]
*333 la_data_out[3]
*334 la_data_out[40]
*335 la_data_out[41]
*336 la_data_out[42]
*337 la_data_out[43]
*338 la_data_out[44]
*339 la_data_out[45]
*340 la_data_out[46]
*341 la_data_out[47]
*342 la_data_out[48]
*343 la_data_out[49]
*344 la_data_out[4]
*345 la_data_out[50]
*346 la_data_out[51]
*347 la_data_out[52]
*348 la_data_out[53]
*349 la_data_out[54]
*350 la_data_out[55]
*351 la_data_out[56]
*352 la_data_out[57]
*353 la_data_out[58]
*354 la_data_out[59]
*355 la_data_out[5]
*356 la_data_out[60]
*357 la_data_out[61]
*358 la_data_out[62]
*359 la_data_out[63]
*360 la_data_out[64]
*361 la_data_out[65]
*362 la_data_out[66]
*363 la_data_out[67]
*364 la_data_out[68]
*365 la_data_out[69]
*366 la_data_out[6]
*367 la_data_out[70]
*368 la_data_out[71]
*369 la_data_out[72]
*370 la_data_out[73]
*371 la_data_out[74]
*372 la_data_out[75]
*373 la_data_out[76]
*374 la_data_out[77]
*375 la_data_out[78]
*376 la_data_out[79]
*377 la_data_out[7]
*378 la_data_out[80]
*379 la_data_out[81]
*380 la_data_out[82]
*381 la_data_out[83]
*382 la_data_out[84]
*383 la_data_out[85]
*384 la_data_out[86]
*385 la_data_out[87]
*386 la_data_out[88]
*387 la_data_out[89]
*388 la_data_out[8]
*389 la_data_out[90]
*390 la_data_out[91]
*391 la_data_out[92]
*392 la_data_out[93]
*393 la_data_out[94]
*394 la_data_out[95]
*395 la_data_out[96]
*396 la_data_out[97]
*397 la_data_out[98]
*398 la_data_out[99]
*399 la_data_out[9]
*400 la_oenb[0]
*401 la_oenb[100]
*402 la_oenb[101]
*403 la_oenb[102]
*404 la_oenb[103]
*405 la_oenb[104]
*406 la_oenb[105]
*407 la_oenb[106]
*408 la_oenb[107]
*409 la_oenb[108]
*410 la_oenb[109]
*411 la_oenb[10]
*412 la_oenb[110]
*413 la_oenb[111]
*414 la_oenb[112]
*415 la_oenb[113]
*416 la_oenb[114]
*417 la_oenb[115]
*418 la_oenb[116]
*419 la_oenb[117]
*420 la_oenb[118]
*421 la_oenb[119]
*422 la_oenb[11]
*423 la_oenb[120]
*424 la_oenb[121]
*425 la_oenb[122]
*426 la_oenb[123]
*427 la_oenb[124]
*428 la_oenb[125]
*429 la_oenb[126]
*430 la_oenb[127]
*431 la_oenb[12]
*432 la_oenb[13]
*433 la_oenb[14]
*434 la_oenb[15]
*435 la_oenb[16]
*436 la_oenb[17]
*437 la_oenb[18]
*438 la_oenb[19]
*439 la_oenb[1]
*440 la_oenb[20]
*441 la_oenb[21]
*442 la_oenb[22]
*443 la_oenb[23]
*444 la_oenb[24]
*445 la_oenb[25]
*446 la_oenb[26]
*447 la_oenb[27]
*448 la_oenb[28]
*449 la_oenb[29]
*450 la_oenb[2]
*451 la_oenb[30]
*452 la_oenb[31]
*453 la_oenb[32]
*454 la_oenb[33]
*455 la_oenb[34]
*456 la_oenb[35]
*457 la_oenb[36]
*458 la_oenb[37]
*459 la_oenb[38]
*460 la_oenb[39]
*461 la_oenb[3]
*462 la_oenb[40]
*463 la_oenb[41]
*464 la_oenb[42]
*465 la_oenb[43]
*466 la_oenb[44]
*467 la_oenb[45]
*468 la_oenb[46]
*469 la_oenb[47]
*470 la_oenb[48]
*471 la_oenb[49]
*472 la_oenb[4]
*473 la_oenb[50]
*474 la_oenb[51]
*475 la_oenb[52]
*476 la_oenb[53]
*477 la_oenb[54]
*478 la_oenb[55]
*479 la_oenb[56]
*480 la_oenb[57]
*481 la_oenb[58]
*482 la_oenb[59]
*483 la_oenb[5]
*484 la_oenb[60]
*485 la_oenb[61]
*486 la_oenb[62]
*487 la_oenb[63]
*488 la_oenb[64]
*489 la_oenb[65]
*490 la_oenb[66]
*491 la_oenb[67]
*492 la_oenb[68]
*493 la_oenb[69]
*494 la_oenb[6]
*495 la_oenb[70]
*496 la_oenb[71]
*497 la_oenb[72]
*498 la_oenb[73]
*499 la_oenb[74]
*500 la_oenb[75]
*501 la_oenb[76]
*502 la_oenb[77]
*503 la_oenb[78]
*504 la_oenb[79]
*505 la_oenb[7]
*506 la_oenb[80]
*507 la_oenb[81]
*508 la_oenb[82]
*509 la_oenb[83]
*510 la_oenb[84]
*511 la_oenb[85]
*512 la_oenb[86]
*513 la_oenb[87]
*514 la_oenb[88]
*515 la_oenb[89]
*516 la_oenb[8]
*517 la_oenb[90]
*518 la_oenb[91]
*519 la_oenb[92]
*520 la_oenb[93]
*521 la_oenb[94]
*522 la_oenb[95]
*523 la_oenb[96]
*524 la_oenb[97]
*525 la_oenb[98]
*526 la_oenb[99]
*527 la_oenb[9]
*528 user_clock2
*529 user_irq[0]
*530 user_irq[1]
*531 user_irq[2]
*540 wb_clk_i
*541 wb_rst_i
*542 wbs_ack_o
*543 wbs_adr_i[0]
*544 wbs_adr_i[10]
*545 wbs_adr_i[11]
*546 wbs_adr_i[12]
*547 wbs_adr_i[13]
*548 wbs_adr_i[14]
*549 wbs_adr_i[15]
*550 wbs_adr_i[16]
*551 wbs_adr_i[17]
*552 wbs_adr_i[18]
*553 wbs_adr_i[19]
*554 wbs_adr_i[1]
*555 wbs_adr_i[20]
*556 wbs_adr_i[21]
*557 wbs_adr_i[22]
*558 wbs_adr_i[23]
*559 wbs_adr_i[24]
*560 wbs_adr_i[25]
*561 wbs_adr_i[26]
*562 wbs_adr_i[27]
*563 wbs_adr_i[28]
*564 wbs_adr_i[29]
*565 wbs_adr_i[2]
*566 wbs_adr_i[30]
*567 wbs_adr_i[31]
*568 wbs_adr_i[3]
*569 wbs_adr_i[4]
*570 wbs_adr_i[5]
*571 wbs_adr_i[6]
*572 wbs_adr_i[7]
*573 wbs_adr_i[8]
*574 wbs_adr_i[9]
*575 wbs_cyc_i
*576 wbs_dat_i[0]
*577 wbs_dat_i[10]
*578 wbs_dat_i[11]
*579 wbs_dat_i[12]
*580 wbs_dat_i[13]
*581 wbs_dat_i[14]
*582 wbs_dat_i[15]
*583 wbs_dat_i[16]
*584 wbs_dat_i[17]
*585 wbs_dat_i[18]
*586 wbs_dat_i[19]
*587 wbs_dat_i[1]
*588 wbs_dat_i[20]
*589 wbs_dat_i[21]
*590 wbs_dat_i[22]
*591 wbs_dat_i[23]
*592 wbs_dat_i[24]
*593 wbs_dat_i[25]
*594 wbs_dat_i[26]
*595 wbs_dat_i[27]
*596 wbs_dat_i[28]
*597 wbs_dat_i[29]
*598 wbs_dat_i[2]
*599 wbs_dat_i[30]
*600 wbs_dat_i[31]
*601 wbs_dat_i[3]
*602 wbs_dat_i[4]
*603 wbs_dat_i[5]
*604 wbs_dat_i[6]
*605 wbs_dat_i[7]
*606 wbs_dat_i[8]
*607 wbs_dat_i[9]
*608 wbs_dat_o[0]
*609 wbs_dat_o[10]
*610 wbs_dat_o[11]
*611 wbs_dat_o[12]
*612 wbs_dat_o[13]
*613 wbs_dat_o[14]
*614 wbs_dat_o[15]
*615 wbs_dat_o[16]
*616 wbs_dat_o[17]
*617 wbs_dat_o[18]
*618 wbs_dat_o[19]
*619 wbs_dat_o[1]
*620 wbs_dat_o[20]
*621 wbs_dat_o[21]
*622 wbs_dat_o[22]
*623 wbs_dat_o[23]
*624 wbs_dat_o[24]
*625 wbs_dat_o[25]
*626 wbs_dat_o[26]
*627 wbs_dat_o[27]
*628 wbs_dat_o[28]
*629 wbs_dat_o[29]
*630 wbs_dat_o[2]
*631 wbs_dat_o[30]
*632 wbs_dat_o[31]
*633 wbs_dat_o[3]
*634 wbs_dat_o[4]
*635 wbs_dat_o[5]
*636 wbs_dat_o[6]
*637 wbs_dat_o[7]
*638 wbs_dat_o[8]
*639 wbs_dat_o[9]
*640 wbs_sel_i[0]
*641 wbs_sel_i[1]
*642 wbs_sel_i[2]
*643 wbs_sel_i[3]
*644 wbs_stb_i
*645 wbs_we_i
*646 afe_data\[0\]
*647 afe_data\[10\]
*648 afe_data\[11\]
*649 afe_data\[1\]
*650 afe_data\[2\]
*651 afe_data\[3\]
*652 afe_data\[4\]
*653 afe_data\[5\]
*654 afe_data\[6\]
*655 afe_data\[7\]
*656 afe_data\[8\]
*657 afe_data\[9\]
*658 afe_eof
*659 afe_ibias
*660 afe_nbias
*661 afe_refby2
*662 afe_refhi
*663 afe_vout
*664 afe_vref
*665 analog_ctrl\[0\]
*666 analog_ctrl\[100\]
*667 analog_ctrl\[101\]
*668 analog_ctrl\[102\]
*669 analog_ctrl\[103\]
*670 analog_ctrl\[104\]
*671 analog_ctrl\[105\]
*672 analog_ctrl\[106\]
*673 analog_ctrl\[107\]
*674 analog_ctrl\[108\]
*675 analog_ctrl\[109\]
*676 analog_ctrl\[10\]
*677 analog_ctrl\[110\]
*678 analog_ctrl\[111\]
*679 analog_ctrl\[112\]
*680 analog_ctrl\[113\]
*681 analog_ctrl\[114\]
*682 analog_ctrl\[115\]
*683 analog_ctrl\[116\]
*684 analog_ctrl\[117\]
*685 analog_ctrl\[118\]
*686 analog_ctrl\[119\]
*687 analog_ctrl\[11\]
*688 analog_ctrl\[120\]
*689 analog_ctrl\[121\]
*690 analog_ctrl\[122\]
*691 analog_ctrl\[12\]
*692 analog_ctrl\[13\]
*693 analog_ctrl\[14\]
*694 analog_ctrl\[15\]
*695 analog_ctrl\[16\]
*696 analog_ctrl\[17\]
*697 analog_ctrl\[18\]
*698 analog_ctrl\[19\]
*699 analog_ctrl\[1\]
*700 analog_ctrl\[20\]
*701 analog_ctrl\[21\]
*702 analog_ctrl\[22\]
*703 analog_ctrl\[23\]
*704 analog_ctrl\[24\]
*705 analog_ctrl\[25\]
*706 analog_ctrl\[26\]
*707 analog_ctrl\[27\]
*708 analog_ctrl\[28\]
*709 analog_ctrl\[29\]
*710 analog_ctrl\[2\]
*711 analog_ctrl\[30\]
*712 analog_ctrl\[31\]
*713 analog_ctrl\[32\]
*714 analog_ctrl\[33\]
*715 analog_ctrl\[34\]
*716 analog_ctrl\[35\]
*717 analog_ctrl\[36\]
*718 analog_ctrl\[37\]
*719 analog_ctrl\[38\]
*720 analog_ctrl\[39\]
*721 analog_ctrl\[3\]
*722 analog_ctrl\[40\]
*723 analog_ctrl\[41\]
*724 analog_ctrl\[42\]
*725 analog_ctrl\[43\]
*726 analog_ctrl\[44\]
*727 analog_ctrl\[45\]
*728 analog_ctrl\[46\]
*729 analog_ctrl\[47\]
*730 analog_ctrl\[48\]
*731 analog_ctrl\[49\]
*732 analog_ctrl\[4\]
*733 analog_ctrl\[50\]
*734 analog_ctrl\[51\]
*735 analog_ctrl\[52\]
*736 analog_ctrl\[53\]
*737 analog_ctrl\[54\]
*738 analog_ctrl\[55\]
*739 analog_ctrl\[56\]
*740 analog_ctrl\[57\]
*741 analog_ctrl\[58\]
*742 analog_ctrl\[59\]
*743 analog_ctrl\[5\]
*744 analog_ctrl\[60\]
*745 analog_ctrl\[61\]
*746 analog_ctrl\[62\]
*747 analog_ctrl\[63\]
*748 analog_ctrl\[64\]
*749 analog_ctrl\[65\]
*750 analog_ctrl\[66\]
*751 analog_ctrl\[67\]
*752 analog_ctrl\[68\]
*753 analog_ctrl\[69\]
*754 analog_ctrl\[6\]
*755 analog_ctrl\[70\]
*756 analog_ctrl\[71\]
*757 analog_ctrl\[72\]
*758 analog_ctrl\[73\]
*759 analog_ctrl\[74\]
*760 analog_ctrl\[75\]
*761 analog_ctrl\[76\]
*762 analog_ctrl\[77\]
*763 analog_ctrl\[78\]
*764 analog_ctrl\[79\]
*765 analog_ctrl\[7\]
*766 analog_ctrl\[80\]
*767 analog_ctrl\[81\]
*768 analog_ctrl\[82\]
*769 analog_ctrl\[83\]
*770 analog_ctrl\[84\]
*771 analog_ctrl\[85\]
*772 analog_ctrl\[86\]
*773 analog_ctrl\[87\]
*774 analog_ctrl\[88\]
*775 analog_ctrl\[89\]
*776 analog_ctrl\[8\]
*777 analog_ctrl\[90\]
*778 analog_ctrl\[91\]
*779 analog_ctrl\[92\]
*780 analog_ctrl\[93\]
*781 analog_ctrl\[94\]
*782 analog_ctrl\[95\]
*783 analog_ctrl\[96\]
*784 analog_ctrl\[97\]
*785 analog_ctrl\[98\]
*786 analog_ctrl\[99\]
*787 analog_ctrl\[9\]
*788 sram_ack
*789 sram_adr\[0\]
*790 sram_adr\[10\]
*791 sram_adr\[11\]
*792 sram_adr\[12\]
*793 sram_adr\[13\]
*794 sram_adr\[14\]
*795 sram_adr\[15\]
*796 sram_adr\[16\]
*797 sram_adr\[17\]
*798 sram_adr\[18\]
*799 sram_adr\[19\]
*800 sram_adr\[1\]
*801 sram_adr\[20\]
*802 sram_adr\[21\]
*803 sram_adr\[22\]
*804 sram_adr\[23\]
*805 sram_adr\[24\]
*806 sram_adr\[25\]
*807 sram_adr\[26\]
*808 sram_adr\[27\]
*809 sram_adr\[28\]
*810 sram_adr\[29\]
*811 sram_adr\[2\]
*812 sram_adr\[30\]
*813 sram_adr\[31\]
*814 sram_adr\[3\]
*815 sram_adr\[4\]
*816 sram_adr\[5\]
*817 sram_adr\[6\]
*818 sram_adr\[7\]
*819 sram_adr\[8\]
*820 sram_adr\[9\]
*821 sram_cyc
*822 sram_rdat\[0\]
*823 sram_rdat\[10\]
*824 sram_rdat\[11\]
*825 sram_rdat\[12\]
*826 sram_rdat\[13\]
*827 sram_rdat\[14\]
*828 sram_rdat\[15\]
*829 sram_rdat\[16\]
*830 sram_rdat\[17\]
*831 sram_rdat\[18\]
*832 sram_rdat\[19\]
*833 sram_rdat\[1\]
*834 sram_rdat\[20\]
*835 sram_rdat\[21\]
*836 sram_rdat\[22\]
*837 sram_rdat\[23\]
*838 sram_rdat\[24\]
*839 sram_rdat\[25\]
*840 sram_rdat\[26\]
*841 sram_rdat\[27\]
*842 sram_rdat\[28\]
*843 sram_rdat\[29\]
*844 sram_rdat\[2\]
*845 sram_rdat\[30\]
*846 sram_rdat\[31\]
*847 sram_rdat\[3\]
*848 sram_rdat\[4\]
*849 sram_rdat\[5\]
*850 sram_rdat\[6\]
*851 sram_rdat\[7\]
*852 sram_rdat\[8\]
*853 sram_rdat\[9\]
*854 sram_sel\[0\]
*855 sram_sel\[1\]
*856 sram_sel\[2\]
*857 sram_sel\[3\]
*858 sram_stb
*859 sram_wdat\[0\]
*860 sram_wdat\[10\]
*861 sram_wdat\[11\]
*862 sram_wdat\[12\]
*863 sram_wdat\[13\]
*864 sram_wdat\[14\]
*865 sram_wdat\[15\]
*866 sram_wdat\[16\]
*867 sram_wdat\[17\]
*868 sram_wdat\[18\]
*869 sram_wdat\[19\]
*870 sram_wdat\[1\]
*871 sram_wdat\[20\]
*872 sram_wdat\[21\]
*873 sram_wdat\[22\]
*874 sram_wdat\[23\]
*875 sram_wdat\[24\]
*876 sram_wdat\[25\]
*877 sram_wdat\[26\]
*878 sram_wdat\[27\]
*879 sram_wdat\[28\]
*880 sram_wdat\[29\]
*881 sram_wdat\[2\]
*882 sram_wdat\[30\]
*883 sram_wdat\[31\]
*884 sram_wdat\[3\]
*885 sram_wdat\[4\]
*886 sram_wdat\[5\]
*887 sram_wdat\[6\]
*888 sram_wdat\[7\]
*889 sram_wdat\[8\]
*890 sram_wdat\[9\]
*891 sram_we
*892 u_cf_adc_sar12
*893 u_cf_adc_sar12_sar_refs
*894 u_cf_bgr
*895 u_cf_buf_hiz
*896 u_cf_refbuf
*897 u_soc_sys
*898 u_sram

*PORTS
analog_io[0] I
analog_io[10] I
analog_io[11] I
analog_io[12] I
analog_io[13] I
analog_io[14] I
analog_io[15] I
analog_io[16] I
analog_io[17] I
analog_io[18] I
analog_io[19] I
analog_io[1] I
analog_io[20] I
analog_io[21] I
analog_io[22] I
analog_io[23] I
analog_io[24] I
analog_io[25] I
analog_io[26] I
analog_io[27] I
analog_io[28] I
analog_io[2] I
analog_io[3] I
analog_io[4] I
analog_io[5] I
analog_io[6] I
analog_io[7] I
analog_io[8] I
analog_io[9] I
io_in[0] I
io_in[10] I
io_in[11] I
io_in[12] I
io_in[13] I
io_in[14] I
io_in[15] I
io_in[16] I
io_in[17] I
io_in[18] I
io_in[19] I
io_in[1] I
io_in[20] I
io_in[21] I
io_in[22] I
io_in[23] I
io_in[24] I
io_in[25] I
io_in[26] I
io_in[27] I
io_in[28] I
io_in[29] I
io_in[2] I
io_in[30] I
io_in[31] I
io_in[32] I
io_in[33] I
io_in[34] I
io_in[35] I
io_in[36] I
io_in[37] I
io_in[3] I
io_in[4] I
io_in[5] I
io_in[6] I
io_in[7] I
io_in[8] I
io_in[9] I
io_oeb[0] O
io_oeb[10] O
io_oeb[11] O
io_oeb[12] O
io_oeb[13] O
io_oeb[14] O
io_oeb[15] O
io_oeb[16] O
io_oeb[17] O
io_oeb[18] O
io_oeb[19] O
io_oeb[1] O
io_oeb[20] O
io_oeb[21] O
io_oeb[22] O
io_oeb[23] O
io_oeb[24] O
io_oeb[25] O
io_oeb[26] O
io_oeb[27] O
io_oeb[28] O
io_oeb[29] O
io_oeb[2] O
io_oeb[30] O
io_oeb[31] O
io_oeb[32] O
io_oeb[33] O
io_oeb[34] O
io_oeb[35] O
io_oeb[36] O
io_oeb[37] O
io_oeb[3] O
io_oeb[4] O
io_oeb[5] O
io_oeb[6] O
io_oeb[7] O
io_oeb[8] O
io_oeb[9] O
io_out[0] O
io_out[10] O
io_out[11] O
io_out[12] O
io_out[13] O
io_out[14] O
io_out[15] O
io_out[16] O
io_out[17] O
io_out[18] O
io_out[19] O
io_out[1] O
io_out[20] O
io_out[21] O
io_out[22] O
io_out[23] O
io_out[24] O
io_out[25] O
io_out[26] O
io_out[27] O
io_out[28] O
io_out[29] O
io_out[2] O
io_out[30] O
io_out[31] O
io_out[32] O
io_out[33] O
io_out[34] O
io_out[35] O
io_out[36] O
io_out[37] O
io_out[3] O
io_out[4] O
io_out[5] O
io_out[6] O
io_out[7] O
io_out[8] O
io_out[9] O
la_data_in[0] I
la_data_in[100] I
la_data_in[101] I
la_data_in[102] I
la_data_in[103] I
la_data_in[104] I
la_data_in[105] I
la_data_in[106] I
la_data_in[107] I
la_data_in[108] I
la_data_in[109] I
la_data_in[10] I
la_data_in[110] I
la_data_in[111] I
la_data_in[112] I
la_data_in[113] I
la_data_in[114] I
la_data_in[115] I
la_data_in[116] I
la_data_in[117] I
la_data_in[118] I
la_data_in[119] I
la_data_in[11] I
la_data_in[120] I
la_data_in[121] I
la_data_in[122] I
la_data_in[123] I
la_data_in[124] I
la_data_in[125] I
la_data_in[126] I
la_data_in[127] I
la_data_in[12] I
la_data_in[13] I
la_data_in[14] I
la_data_in[15] I
la_data_in[16] I
la_data_in[17] I
la_data_in[18] I
la_data_in[19] I
la_data_in[1] I
la_data_in[20] I
la_data_in[21] I
la_data_in[22] I
la_data_in[23] I
la_data_in[24] I
la_data_in[25] I
la_data_in[26] I
la_data_in[27] I
la_data_in[28] I
la_data_in[29] I
la_data_in[2] I
la_data_in[30] I
la_data_in[31] I
la_data_in[32] I
la_data_in[33] I
la_data_in[34] I
la_data_in[35] I
la_data_in[36] I
la_data_in[37] I
la_data_in[38] I
la_data_in[39] I
la_data_in[3] I
la_data_in[40] I
la_data_in[41] I
la_data_in[42] I
la_data_in[43] I
la_data_in[44] I
la_data_in[45] I
la_data_in[46] I
la_data_in[47] I
la_data_in[48] I
la_data_in[49] I
la_data_in[4] I
la_data_in[50] I
la_data_in[51] I
la_data_in[52] I
la_data_in[53] I
la_data_in[54] I
la_data_in[55] I
la_data_in[56] I
la_data_in[57] I
la_data_in[58] I
la_data_in[59] I
la_data_in[5] I
la_data_in[60] I
la_data_in[61] I
la_data_in[62] I
la_data_in[63] I
la_data_in[64] I
la_data_in[65] I
la_data_in[66] I
la_data_in[67] I
la_data_in[68] I
la_data_in[69] I
la_data_in[6] I
la_data_in[70] I
la_data_in[71] I
la_data_in[72] I
la_data_in[73] I
la_data_in[74] I
la_data_in[75] I
la_data_in[76] I
la_data_in[77] I
la_data_in[78] I
la_data_in[79] I
la_data_in[7] I
la_data_in[80] I
la_data_in[81] I
la_data_in[82] I
la_data_in[83] I
la_data_in[84] I
la_data_in[85] I
la_data_in[86] I
la_data_in[87] I
la_data_in[88] I
la_data_in[89] I
la_data_in[8] I
la_data_in[90] I
la_data_in[91] I
la_data_in[92] I
la_data_in[93] I
la_data_in[94] I
la_data_in[95] I
la_data_in[96] I
la_data_in[97] I
la_data_in[98] I
la_data_in[99] I
la_data_in[9] I
la_data_out[0] O
la_data_out[100] O
la_data_out[101] O
la_data_out[102] O
la_data_out[103] O
la_data_out[104] O
la_data_out[105] O
la_data_out[106] O
la_data_out[107] O
la_data_out[108] O
la_data_out[109] O
la_data_out[10] O
la_data_out[110] O
la_data_out[111] O
la_data_out[112] O
la_data_out[113] O
la_data_out[114] O
la_data_out[115] O
la_data_out[116] O
la_data_out[117] O
la_data_out[118] O
la_data_out[119] O
la_data_out[11] O
la_data_out[120] O
la_data_out[121] O
la_data_out[122] O
la_data_out[123] O
la_data_out[124] O
la_data_out[125] O
la_data_out[126] O
la_data_out[127] O
la_data_out[12] O
la_data_out[13] O
la_data_out[14] O
la_data_out[15] O
la_data_out[16] O
la_data_out[17] O
la_data_out[18] O
la_data_out[19] O
la_data_out[1] O
la_data_out[20] O
la_data_out[21] O
la_data_out[22] O
la_data_out[23] O
la_data_out[24] O
la_data_out[25] O
la_data_out[26] O
la_data_out[27] O
la_data_out[28] O
la_data_out[29] O
la_data_out[2] O
la_data_out[30] O
la_data_out[31] O
la_data_out[32] O
la_data_out[33] O
la_data_out[34] O
la_data_out[35] O
la_data_out[36] O
la_data_out[37] O
la_data_out[38] O
la_data_out[39] O
la_data_out[3] O
la_data_out[40] O
la_data_out[41] O
la_data_out[42] O
la_data_out[43] O
la_data_out[44] O
la_data_out[45] O
la_data_out[46] O
la_data_out[47] O
la_data_out[48] O
la_data_out[49] O
la_data_out[4] O
la_data_out[50] O
la_data_out[51] O
la_data_out[52] O
la_data_out[53] O
la_data_out[54] O
la_data_out[55] O
la_data_out[56] O
la_data_out[57] O
la_data_out[58] O
la_data_out[59] O
la_data_out[5] O
la_data_out[60] O
la_data_out[61] O
la_data_out[62] O
la_data_out[63] O
la_data_out[64] O
la_data_out[65] O
la_data_out[66] O
la_data_out[67] O
la_data_out[68] O
la_data_out[69] O
la_data_out[6] O
la_data_out[70] O
la_data_out[71] O
la_data_out[72] O
la_data_out[73] O
la_data_out[74] O
la_data_out[75] O
la_data_out[76] O
la_data_out[77] O
la_data_out[78] O
la_data_out[79] O
la_data_out[7] O
la_data_out[80] O
la_data_out[81] O
la_data_out[82] O
la_data_out[83] O
la_data_out[84] O
la_data_out[85] O
la_data_out[86] O
la_data_out[87] O
la_data_out[88] O
la_data_out[89] O
la_data_out[8] O
la_data_out[90] O
la_data_out[91] O
la_data_out[92] O
la_data_out[93] O
la_data_out[94] O
la_data_out[95] O
la_data_out[96] O
la_data_out[97] O
la_data_out[98] O
la_data_out[99] O
la_data_out[9] O
la_oenb[0] I
la_oenb[100] I
la_oenb[101] I
la_oenb[102] I
la_oenb[103] I
la_oenb[104] I
la_oenb[105] I
la_oenb[106] I
la_oenb[107] I
la_oenb[108] I
la_oenb[109] I
la_oenb[10] I
la_oenb[110] I
la_oenb[111] I
la_oenb[112] I
la_oenb[113] I
la_oenb[114] I
la_oenb[115] I
la_oenb[116] I
la_oenb[117] I
la_oenb[118] I
la_oenb[119] I
la_oenb[11] I
la_oenb[120] I
la_oenb[121] I
la_oenb[122] I
la_oenb[123] I
la_oenb[124] I
la_oenb[125] I
la_oenb[126] I
la_oenb[127] I
la_oenb[12] I
la_oenb[13] I
la_oenb[14] I
la_oenb[15] I
la_oenb[16] I
la_oenb[17] I
la_oenb[18] I
la_oenb[19] I
la_oenb[1] I
la_oenb[20] I
la_oenb[21] I
la_oenb[22] I
la_oenb[23] I
la_oenb[24] I
la_oenb[25] I
la_oenb[26] I
la_oenb[27] I
la_oenb[28] I
la_oenb[29] I
la_oenb[2] I
la_oenb[30] I
la_oenb[31] I
la_oenb[32] I
la_oenb[33] I
la_oenb[34] I
la_oenb[35] I
la_oenb[36] I
la_oenb[37] I
la_oenb[38] I
la_oenb[39] I
la_oenb[3] I
la_oenb[40] I
la_oenb[41] I
la_oenb[42] I
la_oenb[43] I
la_oenb[44] I
la_oenb[45] I
la_oenb[46] I
la_oenb[47] I
la_oenb[48] I
la_oenb[49] I
la_oenb[4] I
la_oenb[50] I
la_oenb[51] I
la_oenb[52] I
la_oenb[53] I
la_oenb[54] I
la_oenb[55] I
la_oenb[56] I
la_oenb[57] I
la_oenb[58] I
la_oenb[59] I
la_oenb[5] I
la_oenb[60] I
la_oenb[61] I
la_oenb[62] I
la_oenb[63] I
la_oenb[64] I
la_oenb[65] I
la_oenb[66] I
la_oenb[67] I
la_oenb[68] I
la_oenb[69] I
la_oenb[6] I
la_oenb[70] I
la_oenb[71] I
la_oenb[72] I
la_oenb[73] I
la_oenb[74] I
la_oenb[75] I
la_oenb[76] I
la_oenb[77] I
la_oenb[78] I
la_oenb[79] I
la_oenb[7] I
la_oenb[80] I
la_oenb[81] I
la_oenb[82] I
la_oenb[83] I
la_oenb[84] I
la_oenb[85] I
la_oenb[86] I
la_oenb[87] I
la_oenb[88] I
la_oenb[89] I
la_oenb[8] I
la_oenb[90] I
la_oenb[91] I
la_oenb[92] I
la_oenb[93] I
la_oenb[94] I
la_oenb[95] I
la_oenb[96] I
la_oenb[97] I
la_oenb[98] I
la_oenb[99] I
la_oenb[9] I
user_clock2 I
user_irq[0] O
user_irq[1] O
user_irq[2] O
wb_clk_i I
wb_rst_i I
wbs_ack_o O
wbs_adr_i[0] I
wbs_adr_i[10] I
wbs_adr_i[11] I
wbs_adr_i[12] I
wbs_adr_i[13] I
wbs_adr_i[14] I
wbs_adr_i[15] I
wbs_adr_i[16] I
wbs_adr_i[17] I
wbs_adr_i[18] I
wbs_adr_i[19] I
wbs_adr_i[1] I
wbs_adr_i[20] I
wbs_adr_i[21] I
wbs_adr_i[22] I
wbs_adr_i[23] I
wbs_adr_i[24] I
wbs_adr_i[25] I
wbs_adr_i[26] I
wbs_adr_i[27] I
wbs_adr_i[28] I
wbs_adr_i[29] I
wbs_adr_i[2] I
wbs_adr_i[30] I
wbs_adr_i[31] I
wbs_adr_i[3] I
wbs_adr_i[4] I
wbs_adr_i[5] I
wbs_adr_i[6] I
wbs_adr_i[7] I
wbs_adr_i[8] I
wbs_adr_i[9] I
wbs_cyc_i I
wbs_dat_i[0] I
wbs_dat_i[10] I
wbs_dat_i[11] I
wbs_dat_i[12] I
wbs_dat_i[13] I
wbs_dat_i[14] I
wbs_dat_i[15] I
wbs_dat_i[16] I
wbs_dat_i[17] I
wbs_dat_i[18] I
wbs_dat_i[19] I
wbs_dat_i[1] I
wbs_dat_i[20] I
wbs_dat_i[21] I
wbs_dat_i[22] I
wbs_dat_i[23] I
wbs_dat_i[24] I
wbs_dat_i[25] I
wbs_dat_i[26] I
wbs_dat_i[27] I
wbs_dat_i[28] I
wbs_dat_i[29] I
wbs_dat_i[2] I
wbs_dat_i[30] I
wbs_dat_i[31] I
wbs_dat_i[3] I
wbs_dat_i[4] I
wbs_dat_i[5] I
wbs_dat_i[6] I
wbs_dat_i[7] I
wbs_dat_i[8] I
wbs_dat_i[9] I
wbs_dat_o[0] O
wbs_dat_o[10] O
wbs_dat_o[11] O
wbs_dat_o[12] O
wbs_dat_o[13] O
wbs_dat_o[14] O
wbs_dat_o[15] O
wbs_dat_o[16] O
wbs_dat_o[17] O
wbs_dat_o[18] O
wbs_dat_o[19] O
wbs_dat_o[1] O
wbs_dat_o[20] O
wbs_dat_o[21] O
wbs_dat_o[22] O
wbs_dat_o[23] O
wbs_dat_o[24] O
wbs_dat_o[25] O
wbs_dat_o[26] O
wbs_dat_o[27] O
wbs_dat_o[28] O
wbs_dat_o[29] O
wbs_dat_o[2] O
wbs_dat_o[30] O
wbs_dat_o[31] O
wbs_dat_o[3] O
wbs_dat_o[4] O
wbs_dat_o[5] O
wbs_dat_o[6] O
wbs_dat_o[7] O
wbs_dat_o[8] O
wbs_dat_o[9] O
wbs_sel_i[0] I
wbs_sel_i[1] I
wbs_sel_i[2] I
wbs_sel_i[3] I
wbs_stb_i I
wbs_we_i I

*D_NET *1 0.346865
*CONN
*P analog_io[0] I
*I *894:vb2_fast I *D CF_BGR
*CAP
1 analog_io[0] 0.144258
2 *894:vb2_fast 0.00283992
3 *1:9 0.0157019
4 *1:7 0.012862
5 *1:5 0.144258
6 *1:9 *80:22 0.0269463
7 *1:9 *81:14 0
*RES
1 analog_io[0] *1:5 478.305 
2 *1:5 *1:7 8 
3 *1:7 *1:9 64.0304 
4 *1:9 *894:vb2_fast 49.1435 
*END

*D_NET *12 0.376192
*CONN
*P analog_io[1] I
*I *895:vinp_p I *D CF_BUF_HIZ
*CAP
1 analog_io[1] 0.12839
2 *895:vinp_p 7.03329e-05
3 *12:27 0.00505806
4 *12:13 0.0268002
5 *12:11 0.0218124
6 *12:9 0.0275022
7 *12:7 0.0275022
8 *12:5 0.12839
9 *895:vinp_p *895:vinp_na 2.01262e-05
10 *12:5 *67:71 0
11 *12:27 *895:vinn_na 9.31737e-06
12 *12:27 *895:vinn_p 1.27489e-05
13 *12:27 *75:30 0.0106244
14 *12:27 *721:23 0
*RES
1 analog_io[1] *12:5 437.132 
2 *12:5 *12:7 8 
3 *12:7 *12:9 628.368 
4 *12:9 *12:11 8 
5 *12:11 *12:13 69.9085 
6 *12:13 *12:27 49.6648 
7 *12:27 *895:vinp_p 16.4396 
*END

*D_NET *13 0.322942
*CONN
*P analog_io[20] I
*I *892:vinm I *D CF_ADC_SAR12
*CAP
1 analog_io[20] 0.00229675
2 *892:vinm 0.00761976
3 *13:15 0.102223
4 *13:13 0.0946032
5 *13:11 0.054025
6 *13:9 0.0563217
7 *892:vinm *892:vreflo 0
8 *892:vinm *892:vinp 0.00103625
9 *892:vinm *659:39 0.00109224
10 *13:15 *28:24 0.00372376
*RES
1 analog_io[20] *13:9 6.57627 
2 *13:9 *13:11 179.689 
3 *13:11 *13:13 8 
4 *13:13 *13:15 322.34 
5 *13:15 *892:vinm 35.3336 
*END

*D_NET *14 0.37911
*CONN
*P analog_io[21] I
*I *893:refout O *D CF_ADC_SAR12_sar_refs
*CAP
1 analog_io[21] 0.00234734
2 *893:refout 0.00199799
3 *14:19 0.092124
4 *14:17 0.0897767
5 *14:15 0.095388
6 *14:13 0.097386
7 *14:13 *659:75 9.03485e-05
8 *14:13 *662:13 0
*RES
1 *893:refout *14:13 22.8796 
2 *14:13 *14:15 330.083 
3 *14:15 *14:17 8 
4 *14:17 *14:19 299.387 
5 *14:19 analog_io[21] 6.57627 
*END

*D_NET *15 0.263848
*CONN
*P analog_io[22] I
*I *892:vreflo I *D CF_ADC_SAR12
*CAP
1 analog_io[22] 0.0024187
2 *892:vreflo 0.00381121
3 *15:15 0.0677499
4 *15:13 0.0639387
5 *15:11 0.0582757
6 *15:9 0.0606944
7 *892:vreflo *892:vinp 0.00103625
8 *892:vreflo *659:39 0.000820545
9 *15:15 *709:17 6.87771e-06
10 *15:15 *711:21 0.00509583
11 *15:15 *712:17 0
12 *892:vinm *892:vreflo 0
*RES
1 analog_io[22] *15:9 6.57627 
2 *15:9 *15:11 193.771 
3 *15:11 *15:13 8 
4 *15:13 *15:15 224.093 
5 *15:15 *892:vreflo 21.2515 
*END

*D_NET *17 0.0237828
*CONN
*P analog_io[24] I
*I *894:dft_curr_in I *D CF_BGR
*CAP
1 analog_io[24] 0.00283071
2 *894:dft_curr_in 0.00373025
3 *17:11 0.00762716
4 *17:9 0.00672761
5 *17:9 *124:17 0.000325813
6 *17:11 *82:17 0.00254127
*RES
1 analog_io[24] *17:9 15.4181 
2 *17:9 *17:11 89.5893 
3 *17:11 *894:dft_curr_in 29.4338 
*END

*D_NET *18 0.241343
*CONN
*P analog_io[25] I
*I *892:vdda I *D CF_ADC_SAR12
*I *893:vdda I *D CF_ADC_SAR12_sar_refs
*CAP
1 analog_io[25] 0.00793429
2 *892:vdda 3.89923e-05
3 *893:vdda 0
4 *18:33 0.0191668
5 *18:31 0.0191668
6 *18:29 0.0288038
7 *18:27 0.0325809
8 *18:23 0.0143035
9 *18:19 0.05887
10 *18:17 0.0500959
11 *18:13 0.00964767
12 *892:vdda *776:35 2.37336e-05
13 *18:29 *655:27 0
14 *18:33 *893:VPUMP 0.0007105
*RES
1 analog_io[25] *18:13 31.4192 
2 *18:13 *18:17 47.585 
3 *18:17 *18:19 158.437 
4 *18:19 *18:23 42.2011 
5 *18:23 *18:27 20.2416 
6 *18:27 *18:29 93.3072 
7 *18:29 *18:31 8 
8 *18:31 *18:33 60.2224 
9 *18:33 *893:vdda 8 
10 *18:23 *892:vdda 16.0989 
*END

*D_NET *19 0.251979
*CONN
*P analog_io[26] I
*I *892:vssa I *D CF_ADC_SAR12
*I *893:vssa_shield I *D CF_ADC_SAR12_sar_refs
*I *893:vssa I *D CF_ADC_SAR12_sar_refs
*CAP
1 analog_io[26] 0.0025998
2 *892:vssa 0.00123086
3 *893:vssa_shield 0.00067694
4 *893:vssa 0.0367721
5 *19:29 0.0548651
6 *19:27 0.0345546
7 *19:17 0.0175787
8 *19:13 0.00302479
9 *19:11 0.0456138
10 *19:9 0.0482136
11 *892:vssa *892:pd_ana 0
12 *893:vssa *893:S_LV[3] 0.0013315
13 *893:vssa *893:S_LV[2] 0.0013315
14 *893:vssa *893:S_LV[0] 0.00152232
15 *893:vssa *678:13 0.0013315
16 *893:vssa *681:13 0.0013315
*RES
1 analog_io[26] *19:9 6.57627 
2 *19:9 *19:11 151.138 
3 *19:11 *19:13 8 
4 *19:13 *19:17 49.6979 
5 *19:17 *19:27 15.0471 
6 *19:27 *19:29 62.2533 
7 *19:29 *893:vssa 19.9868 
8 *893:vssa *893:vssa_shield 11.1857 
9 *19:13 *892:vssa 28.5546 
*END

*D_NET *20 0.239885
*CONN
*P analog_io[27] I
*I *892:VPUMP I *D CF_ADC_SAR12
*I *893:VPUMP I *D CF_ADC_SAR12_sar_refs
*CAP
1 analog_io[27] 0.0583728
2 *892:VPUMP 0
3 *893:VPUMP 0.00374771
4 *20:40 0.0121121
5 *20:29 0.0384709
6 *20:27 0.0347232
7 *20:25 0.00296111
8 *20:23 0.00366333
9 *20:17 0.0711871
10 *20:17 *92:17 0.000203612
11 *20:17 *528:19 3.38012e-05
12 *20:25 *760:33 0.0019362
13 *20:29 *67:181 0
14 *20:40 *528:19 0.0117628
15 *20:40 *784:23 0
16 *18:33 *893:VPUMP 0.0007105
*RES
1 analog_io[27] *20:17 32.526 
2 *20:17 *20:23 18.4173 
3 *20:23 *20:25 68.4607 
4 *20:25 *20:27 8 
5 *20:27 *20:29 112.756 
6 *20:29 *893:VPUMP 29.0032 
7 *20:17 *20:40 52.7333 
8 *20:40 *892:VPUMP 8 
*END

*D_NET *22 0.414445
*CONN
*P analog_io[2] I
*I *895:vinn_p I *D CF_BUF_HIZ
*CAP
1 analog_io[2] 0.151483
2 *895:vinn_p 0.00107668
3 *22:9 0.0550885
4 *22:7 0.0540119
5 *22:5 0.151483
6 *895:vinn_p *895:vinp_n 0.00127567
7 *895:vinn_p *895:vinn_na 1.34957e-05
8 *22:5 *67:25 0
9 *12:27 *895:vinn_p 1.27489e-05
*RES
1 analog_io[2] *22:5 504.237 
2 *22:5 *22:7 8 
3 *22:7 *22:9 186.775 
4 *22:9 *895:vinn_p 43.2621 
*END

*D_NET *23 0.465689
*CONN
*P analog_io[3] I
*I *895:vinp_n I *D CF_BUF_HIZ
*CAP
1 analog_io[3] 0.150495
2 *895:vinp_n 0.00166711
3 *23:9 0.0781903
4 *23:7 0.0765232
5 *23:5 0.150495
6 *895:vinp_n *895:clk1_boostr 0.000148687
7 *895:vinp_n *895:vinp_na 4.14019e-05
8 *895:vinp_n *895:e_n_boost 2.85139e-05
9 *895:vinp_n *721:23 6.66347e-05
10 *23:9 *120:14 0.00675827
11 *895:vinn_p *895:vinp_n 0.00127567
*RES
1 analog_io[3] *23:5 501.661 
2 *23:5 *23:7 8 
3 *23:7 *23:9 236.152 
4 *23:9 *895:vinp_n 48.5276 
*END

*D_NET *24 0.500708
*CONN
*P analog_io[4] I
*I *895:vinn_n I *D CF_BUF_HIZ
*CAP
1 analog_io[4] 0.000259987
2 *895:vinn_n 0
3 *24:25 0.00252616
4 *24:17 0.0251373
5 *24:15 0.0226112
6 *24:13 0.143662
7 *24:11 0.143662
8 *24:9 0.0327002
9 *24:7 0.0329602
10 *24:9 *26:9 0.0265574
11 *24:9 *65:9 0.00111858
12 *24:9 *69:25 0.0318423
13 *24:9 *71:33 0.0016856
14 *24:9 *141:25 0.00284056
15 *24:13 *894:trimTC[3] 8.98845e-05
16 *24:13 *894:trimTC[0] 4.29408e-05
17 *24:13 *894:trimTC[1] 0.000167505
18 *24:13 *71:29 0
19 *24:13 *81:18 0
20 *24:13 *752:21 2.37336e-05
21 *24:13 *768:18 0
22 *24:17 *77:17 0.0155307
23 *24:17 *115:14 0
24 *24:17 *115:24 0.000365857
25 *24:25 *895:vinp_na 0.00443576
26 *24:25 *895:vinn_na 0.00902852
27 *24:25 *895:e_na_boost 4.62346e-05
28 *24:25 *710:29 0.00283631
29 *24:25 *721:23 2.33476e-05
30 *24:25 *732:29 0.000553488
*RES
1 analog_io[4] *24:7 8.58613 
2 *24:7 *24:9 1046.01 
3 *24:9 *24:11 8 
4 *24:11 *24:13 486.362 
5 *24:13 *24:15 8 
6 *24:15 *24:17 98.9371 
7 *24:17 *24:25 36.2552 
8 *24:25 *895:vinn_n 15 
*END

*D_NET *25 0.534293
*CONN
*P analog_io[5] I
*I *895:vinp_na I *D CF_BUF_HIZ
*CAP
1 analog_io[5] 0.000633305
2 *895:vinp_na 0.0011659
3 *25:17 0.0811059
4 *25:15 0.07994
5 *25:13 0.14873
6 *25:11 0.149363
7 *895:vinp_na *895:clk2_boost 6.74949e-05
8 *895:vinp_na *895:e_n_boost 1.15992e-05
9 *895:vinp_na *710:29 0.00443214
10 *25:11 *26:9 0
11 *25:17 *69:17 0.0411789
12 *25:17 *771:17 0.0228674
13 *25:17 *772:29 0.000299521
14 *895:vinp_n *895:vinp_na 4.14019e-05
15 *895:vinp_p *895:vinp_na 2.01262e-05
16 *24:25 *895:vinp_na 0.00443576
*RES
1 analog_io[5] *25:11 23.5849 
2 *25:11 *25:13 496.666 
3 *25:13 *25:15 8 
4 *25:15 *25:17 335.795 
5 *25:17 *895:vinp_na 44.9432 
*END

*D_NET *26 0.607423
*CONN
*P analog_io[6] I
*I *895:vinn_na I *D CF_BUF_HIZ
*CAP
1 analog_io[6] 0.000112037
2 *895:vinn_na 0.00218194
3 *26:17 0.0197577
4 *26:15 0.0175757
5 *26:13 0.147637
6 *26:11 0.147637
7 *26:9 0.0348202
8 *26:7 0.0349323
9 *895:vinn_na *895:clk1_boostr 0
10 *895:vinn_na *721:23 5.61103e-05
11 *895:vinn_na *732:29 0.00485707
12 *26:9 *66:9 0.000201676
13 *26:9 *71:33 0.0327322
14 *26:9 *72:17 0.0113523
15 *26:9 *108:17 0.0339838
16 *26:9 *141:25 0.00826558
17 *26:9 *142:30 0.0299048
18 *26:13 *67:95 0.000185407
19 *26:13 *774:22 0
20 *26:17 *894:mux1sel[0] 0.00551417
21 *26:17 *770:25 0.0401081
22 *895:vinn_p *895:vinn_na 1.34957e-05
23 *12:27 *895:vinn_na 9.31737e-06
24 *24:9 *26:9 0.0265574
25 *24:25 *895:vinn_na 0.00902852
26 *25:11 *26:9 0
*RES
1 analog_io[6] *26:7 8.32853 
2 *26:7 *26:9 1617.89 
3 *26:9 *26:11 8 
4 *26:11 *26:13 489.367 
5 *26:13 *26:15 8 
6 *26:15 *26:17 95.1291 
7 *26:17 *895:vinn_na 49.4311 
*END

*D_NET *27 0.375759
*CONN
*P analog_io[7] I
*I *896:ch1 I *D CF_REFBUF
*I *896:ch2 I *D CF_REFBUF
*I *896:out O *D CF_REFBUF
*CAP
1 analog_io[7] 0.111505
2 *896:ch1 0.000214321
3 *896:ch2 0.00285423
4 *896:out 0.00359491
5 *27:46 0.111505
6 *27:44 0.0725648
7 *27:42 0.0725648
8 *27:40 0.000954994
9 *896:ch2 *896:switchon 0
*RES
1 *896:out *896:ch2 25.4155 
2 *896:ch2 *896:ch1 19.2775 
3 *896:out *27:40 35.9214 
4 *27:40 *27:42 15 
5 *27:42 *27:44 1681.8 
6 *27:44 *27:46 8 
7 *27:46 analog_io[7] 372.732 
*END

*D_NET *28 0.400436
*CONN
*P analog_io[8] I
*I *896:ng I *D CF_REFBUF
*I *896:vpwre I *D CF_REFBUF
*CAP
1 analog_io[8] 0.0835296
2 *896:ng 0.000529061
3 *896:vpwre 0.0041222
4 *28:24 0.00552907
5 *28:22 0.00500001
6 *28:13 0.00440394
7 *28:9 0.105175
8 *28:7 0.104893
9 *28:5 0.0835296
10 *13:15 *28:24 0.00372376
*RES
1 analog_io[8] *28:5 1936.15 
2 *28:5 *28:7 8 
3 *28:7 *28:9 350.778 
4 *28:9 *28:13 1.00987 
5 *28:13 *896:vpwre 22.3957 
6 *28:13 *28:22 8 
7 *28:22 *28:24 114.944 
8 *28:24 *896:ng 21.6923 
*END

*D_NET *31 1.07218
*CONN
*P io_in[10] I
*I *897:io_in[3] I *D soc_sys
*CAP
1 io_in[10] 0.00123106
2 *897:io_in[3] 0.000523797
3 *31:23 0.00256471
4 *31:21 0.00226525
5 *31:13 0.219292
6 *31:11 0.219068
7 *31:9 0.0921564
8 *31:7 0.0933875
9 *897:io_in[3] *118:17 0.000103649
10 *31:9 *32:9 0.00552312
11 *31:9 *33:9 0.0058221
12 *31:9 *34:9 0.0319173
13 *31:9 *35:9 0.0650422
14 *31:9 *105:33 0.11961
15 *31:9 *107:25 0.00552312
16 *31:9 *109:25 0.00084038
17 *31:9 *111:31 0.000763304
18 *31:9 *143:51 0.00506421
19 *31:9 *528:11 0.0104096
20 *31:13 *34:21 0.00342178
21 *31:13 *35:21 0.00472077
22 *31:13 *36:19 0.0020084
23 *31:13 *66:13 0.107707
24 *31:13 *557:11 0.00343343
25 *31:13 *570:13 0.00128901
26 *31:13 *574:15 0.000923625
27 *31:13 *581:15 0.00614713
28 *31:13 *582:11 0.00249822
29 *31:13 *585:17 0.00571708
30 *31:13 *593:15 0.00309107
31 *31:13 *594:15 0.00589208
32 *31:13 *609:14 0.0028621
33 *31:13 *626:14 0.00420582
34 *31:13 *629:14 0.00553395
35 *31:13 *872:13 0.00659228
36 *31:13 *887:13 0.00321365
37 *31:13 *889:13 0.00343717
38 *31:13 *891:15 0.00410946
39 *31:21 *34:21 8.46364e-06
40 *31:21 *35:21 0.000141032
41 *31:21 *37:17 1.58134e-05
42 *31:23 *33:25 0.00812319
43 *31:23 *34:25 2.97444e-05
44 *31:23 *37:21 0.000906431
45 *31:23 *103:31 0.00504672
46 *31:23 *542:38 0
*RES
1 io_in[10] *31:7 11.1192 
2 *31:7 *31:9 412.082 
3 *31:9 *31:11 0.891 
4 *31:11 *31:13 64.6521 
5 *31:13 *31:21 17.5051 
6 *31:21 *31:23 109.309 
7 *31:23 *897:io_in[3] 9.10133 
*END

*D_NET *32 1.10689
*CONN
*P io_in[11] I
*I *897:io_in[4] I *D soc_sys
*CAP
1 io_in[11] 0.000933532
2 *897:io_in[4] 0.000199718
3 *32:25 0.00188655
4 *32:23 0.00168683
5 *32:21 0.027822
6 *32:19 0.0279439
7 *32:13 0.033046
8 *32:11 0.032924
9 *32:9 0.0323285
10 *32:7 0.033262
11 *897:io_in[4] *897:io_in[5] 0
12 *897:io_in[4] *118:17 0.000149282
13 *32:9 *33:9 0.201372
14 *32:9 *105:33 0.0173358
15 *32:9 *107:25 0.182537
16 *32:9 *143:51 0.000714654
17 *32:13 *33:13 0.153583
18 *32:13 *38:9 0.0820556
19 *32:13 *871:13 0.00539614
20 *32:19 *38:15 6.77187e-05
21 *32:19 *871:9 0
22 *32:21 *36:9 0.00247389
23 *32:21 *38:17 0.124029
24 *32:21 *110:13 0.12269
25 *32:21 *852:9 0.000683526
26 *32:21 *869:13 2.17681e-05
27 *32:25 *36:21 0.00828262
28 *32:25 *40:37 0.00619536
29 *32:25 *142:16 0.00107548
30 *32:25 *542:38 0.000667668
31 *31:9 *32:9 0.00552312
*RES
1 io_in[11] *32:7 10.6469 
2 *32:7 *32:9 2556.88 
3 *32:9 *32:11 15 
4 *32:11 *32:13 1677.65 
5 *32:13 *32:19 24.7296 
6 *32:19 *32:21 237.306 
7 *32:21 *32:23 8 
8 *32:23 *32:25 107.196 
9 *32:25 *897:io_in[4] 8.58613 
*END

*D_NET *33 1.09194
*CONN
*P io_in[12] I
*I *897:io_in[5] I *D soc_sys
*CAP
1 io_in[12] 0.000933281
2 *897:io_in[5] 0.000507491
3 *33:25 0.00252107
4 *33:23 0.00201358
5 *33:21 0.0329807
6 *33:19 0.0330488
7 *33:13 0.0206532
8 *33:11 0.020585
9 *33:9 0.037652
10 *33:7 0.0385853
11 *897:io_in[5] *897:io_in[6] 0
12 *33:9 *34:9 0.000685693
13 *33:9 *105:33 0.0190863
14 *33:9 *109:25 0.0226735
15 *33:9 *111:31 0.177597
16 *33:9 *528:11 0
17 *33:13 *34:13 0.0230067
18 *33:13 *37:9 0.114213
19 *33:13 *38:9 2.18506e-05
20 *33:13 *869:13 0.00646022
21 *33:21 *37:17 0.0579749
22 *33:21 *38:17 0.0581339
23 *33:21 *66:13 0
24 *33:21 *569:17 0.0147414
25 *33:21 *629:14 0.0285415
26 *33:21 *869:13 0.00241628
27 *33:21 *872:13 0.000245285
28 *33:21 *887:13 0.000490121
29 *33:25 *34:25 0.00140822
30 *33:25 *37:21 0
31 *33:25 *42:21 0.00586398
32 *897:io_in[4] *897:io_in[5] 0
33 *31:9 *33:9 0.0058221
34 *31:23 *33:25 0.00812319
35 *32:9 *33:9 0.201372
36 *32:13 *33:13 0.153583
*RES
1 io_in[12] *33:7 10.7328 
2 *33:7 *33:9 2831.2 
3 *33:9 *33:11 15 
4 *33:11 *33:13 1691.94 
5 *33:13 *33:19 24.0254 
6 *33:19 *33:21 235.073 
7 *33:21 *33:23 8 
8 *33:23 *33:25 113.535 
9 *33:25 *897:io_in[5] 9.01547 
*END

*D_NET *34 1.23846
*CONN
*P io_in[13] I
*I *897:io_in[6] I *D soc_sys
*CAP
1 io_in[13] 0.000965428
2 *897:io_in[6] 0.000393167
3 *34:25 0.00239972
4 *34:23 0.00200656
5 *34:21 0.00869977
6 *34:19 0.00888317
7 *34:13 0.0350986
8 *34:11 0.0349152
9 *34:9 0.0355175
10 *34:7 0.0364829
11 *897:io_in[6] *897:io_in[7] 0
12 *34:9 *35:9 0.244622
13 *34:9 *109:25 0.226327
14 *34:9 *111:31 0.00850412
15 *34:13 *35:13 0.242946
16 *34:13 *37:9 0.182941
17 *34:13 *38:17 0.0232103
18 *34:13 *869:13 0.00464938
19 *34:21 *35:21 0.00400306
20 *34:21 *36:19 0.00668984
21 *34:21 *37:17 0.0386673
22 *34:21 *609:14 0.0146741
23 *34:25 *35:25 0.0091958
24 *34:25 *42:21 0.00618931
25 *897:io_in[5] *897:io_in[6] 0
26 *31:9 *34:9 0.0319173
27 *31:13 *34:21 0.00342178
28 *31:21 *34:21 8.46364e-06
29 *31:23 *34:25 2.97444e-05
30 *33:9 *34:9 0.000685693
31 *33:13 *34:13 0.0230067
32 *33:25 *34:25 0.00140822
*RES
1 io_in[13] *34:7 10.9904 
2 *34:7 *34:9 3105.87 
3 *34:9 *34:11 15 
4 *34:11 *34:13 2594.77 
5 *34:13 *34:19 26.1382 
6 *34:19 *34:21 71.9264 
7 *34:21 *34:23 8 
8 *34:23 *34:25 119.169 
9 *34:25 *897:io_in[6] 8.84373 
*END

*D_NET *35 1.17496
*CONN
*P io_in[14] I
*I *897:io_in[7] I *D soc_sys
*CAP
1 io_in[14] 0.000973313
2 *897:io_in[7] 0.00032725
3 *35:25 0.00234512
4 *35:23 0.00201787
5 *35:21 0.00544489
6 *35:19 0.00575615
7 *35:13 0.0368415
8 *35:11 0.0365302
9 *35:9 0.0931597
10 *35:7 0.094133
11 *897:io_in[7] *897:io_in[8] 0
12 *897:io_in[7] *143:37 7.80898e-05
13 *35:9 *111:31 0.00757949
14 *35:9 *528:11 0
15 *35:13 *36:9 0.246997
16 *35:13 *38:17 0.0219765
17 *35:13 *869:13 0.00401807
18 *35:19 *609:18 5.5925e-05
19 *35:21 *36:19 0.0125903
20 *35:21 *66:13 0.0236046
21 *35:21 *609:14 6.52316e-05
22 *35:25 *36:21 0.00962933
23 *35:25 *42:21 0.000162901
24 *35:25 *542:38 0
25 *897:io_in[6] *897:io_in[7] 0
26 *31:9 *35:9 0.0650422
27 *31:13 *35:21 0.00472077
28 *31:21 *35:21 0.000141032
29 *34:9 *35:9 0.244622
30 *34:13 *35:13 0.242946
31 *34:21 *35:21 0.00400306
32 *34:25 *35:25 0.0091958
*RES
1 io_in[14] *35:7 11.0763 
2 *35:7 *35:9 3380.89 
3 *35:9 *35:11 15 
4 *35:11 *35:13 2744.37 
5 *35:13 *35:19 28.6032 
6 *35:19 *35:21 44.7925 
7 *35:21 *35:23 8 
8 *35:23 *35:25 125.508 
9 *35:25 *897:io_in[7] 8.75787 
*END

*D_NET *36 0.771361
*CONN
*P io_in[15] I
*I *897:io_in[8] I *D soc_sys
*CAP
1 io_in[15] 0.153365
2 *897:io_in[8] 0.000277227
3 *36:21 0.00247211
4 *36:19 0.00510857
5 *36:15 0.00322372
6 *36:9 0.080107
7 *36:7 0.079797
8 *36:5 0.153365
9 *897:io_in[8] *897:io_in[9] 0
10 *897:io_in[8] *143:37 6.90983e-05
11 *36:9 *39:29 0
12 *36:9 *852:9 0.000196487
13 *36:9 *856:15 0.00308699
14 *36:9 *869:13 0.000891393
15 *36:21 *40:37 0.000633369
16 *36:21 *42:21 9.5085e-05
17 *36:21 *542:38 0
18 *897:io_in[7] *897:io_in[8] 0
19 *31:13 *36:19 0.0020084
20 *32:21 *36:9 0.00247389
21 *32:25 *36:21 0.00828262
22 *34:21 *36:19 0.00668984
23 *35:13 *36:9 0.246997
24 *35:21 *36:19 0.0125903
25 *35:25 *36:21 0.00962933
*RES
1 io_in[15] *36:5 3550.91 
2 *36:5 *36:7 15 
3 *36:7 *36:9 2755.81 
4 *36:9 *36:15 28.2511 
5 *36:15 *36:19 31.4117 
6 *36:19 *36:21 129.029 
7 *36:21 *897:io_in[8] 8.672 
*END

*D_NET *37 0.865136
*CONN
*P io_in[16] I
*I *897:io_in[9] I *D soc_sys
*CAP
1 io_in[16] 0.151577
2 *897:io_in[9] 0.000655798
3 *37:21 0.00332277
4 *37:19 0.00266698
5 *37:17 0.0121718
6 *37:15 0.0122923
7 *37:9 0.0344619
8 *37:7 0.0343414
9 *37:5 0.151577
10 *897:io_in[9] *897:io_in[10] 0
11 *37:5 *67:73 0.00926309
12 *37:9 *38:17 0.0285657
13 *37:9 *869:13 0.00630131
14 *37:17 *38:17 4.28585e-05
15 *37:17 *585:17 0.00133566
16 *37:17 *594:15 0.00314077
17 *37:17 *609:14 0.00509005
18 *37:17 *629:14 2.55744e-05
19 *37:21 *38:21 0.00997626
20 *37:21 *42:21 0
21 *37:21 *103:31 0.00249705
22 *37:21 *107:9 0.00109973
23 *37:21 *114:9 1.33927e-05
24 *897:io_in[8] *897:io_in[9] 0
25 *31:21 *37:17 1.58134e-05
26 *31:23 *37:21 0.000906431
27 *33:13 *37:9 0.114213
28 *33:21 *37:17 0.0579749
29 *33:25 *37:21 0
30 *34:13 *37:9 0.182941
31 *34:21 *37:17 0.0386673
*RES
1 io_in[16] *37:5 3551.96 
2 *37:5 *37:7 15 
3 *37:7 *37:9 1953.5 
4 *37:9 *37:15 25.0818 
5 *37:15 *37:17 108.162 
6 *37:17 *37:19 8 
7 *37:19 *37:21 131.142 
8 *37:21 *897:io_in[9] 9.35893 
*END

*D_NET *38 0.811899
*CONN
*P io_in[17] I
*I *897:io_in[10] I *D soc_sys
*CAP
1 io_in[17] 0.153554
2 *897:io_in[10] 0.000694069
3 *38:21 0.00395953
4 *38:19 0.00326547
5 *38:17 0.0305586
6 *38:15 0.0306479
7 *38:9 0.0263438
8 *38:7 0.0262545
9 *38:5 0.153554
10 *897:io_in[10] *897:io_in[11] 0
11 *38:9 *871:13 0.0124598
12 *38:15 *871:9 0
13 *38:17 *110:13 0.000182774
14 *38:17 *569:17 0.0147355
15 *38:17 *869:13 0.00380461
16 *38:21 *39:41 0
17 *38:21 *44:29 0
18 *38:21 *74:31 0.00364612
19 *38:21 *107:9 0.000160509
20 *897:io_in[9] *897:io_in[10] 0
21 *32:13 *38:9 0.0820556
22 *32:19 *38:15 6.77187e-05
23 *32:21 *38:17 0.124029
24 *33:13 *38:9 2.18506e-05
25 *33:21 *38:17 0.0581339
26 *34:13 *38:17 0.0232103
27 *35:13 *38:17 0.0219765
28 *37:9 *38:17 0.0285657
29 *37:17 *38:17 4.28585e-05
30 *37:21 *38:21 0.00997626
*RES
1 io_in[17] *38:5 3553.02 
2 *38:5 *38:7 15 
3 *38:7 *38:9 896.784 
4 *38:9 *38:15 24.3775 
5 *38:15 *38:17 238.078 
6 *38:17 *38:19 8 
7 *38:19 *38:21 133.255 
8 *38:21 *897:io_in[10] 9.4448 
*END

*D_NET *39 0.655807
*CONN
*P io_in[18] I
*I *897:io_in[11] I *D soc_sys
*CAP
1 io_in[18] 0.00182126
2 *897:io_in[11] 0.00100989
3 *39:41 0.00329152
4 *39:39 0.00228163
5 *39:37 0.048188
6 *39:35 0.048242
7 *39:29 0.0211192
8 *39:27 0.021526
9 *39:17 0.184613
10 *39:15 0.185973
11 *897:io_in[11] *897:io_in[12] 0
12 *39:15 *75:34 0.00072348
13 *39:15 *112:41 0.00166572
14 *39:27 *110:21 0.000100742
15 *39:29 *898:wbs_dat_i[11] 0.000445248
16 *39:29 *110:21 0
17 *39:29 *840:9 0
18 *39:29 *862:13 0.00553991
19 *39:29 *863:21 5.90229e-05
20 *39:29 *866:21 0
21 *39:29 *867:17 0
22 *39:29 *885:13 0.003776
23 *39:35 *890:9 0
24 *39:37 *110:13 0.0349363
25 *39:37 *143:39 0
26 *39:37 *556:15 0.000131525
27 *39:37 *559:21 0.00536807
28 *39:37 *590:15 0.0418673
29 *39:37 *607:19 0.0211615
30 *39:37 *622:14 1.08122e-05
31 *39:37 *639:14 0.000129868
32 *39:37 *851:9 0.00285352
33 *39:37 *859:13 0.00152473
34 *39:41 io_out[37] 0.000395262
35 *39:41 *897:io_in[30] 0.000401308
36 *39:41 *43:37 0.0089253
37 *39:41 *44:29 0
38 *39:41 *109:9 0.00125901
39 *39:41 *110:9 0
40 *39:41 *113:9 0.000136948
41 *39:41 *118:19 0.00633024
42 *897:io_in[10] *897:io_in[11] 0
43 *36:9 *39:29 0
44 *38:21 *39:41 0
*RES
1 io_in[18] *39:15 25.8639 
2 *39:15 *39:17 638.911 
3 *39:17 *39:27 34.9154 
4 *39:27 *39:29 521.834 
5 *39:29 *39:35 24.0254 
6 *39:35 *39:37 237.649 
7 *39:37 *39:39 8 
8 *39:39 *39:41 133.959 
9 *39:41 *897:io_in[11] 10.3035 
*END

*D_NET *40 0.739894
*CONN
*P io_in[19] I
*I *897:io_in[12] I *D soc_sys
*CAP
1 io_in[19] 0.000113903
2 *897:io_in[12] 0.000192497
3 *40:37 0.00380963
4 *40:35 0.00455759
5 *40:25 0.0261415
6 *40:23 0.025201
7 *40:21 0.00770143
8 *40:19 0.0104875
9 *40:13 0.182359
10 *40:11 0.184366
11 *40:7 0.00490682
12 *897:io_in[12] *897:io_in[13] 0
13 *40:11 *75:34 0.0116362
14 *40:11 *77:21 0.00444193
15 *40:11 *116:27 0.0134925
16 *40:13 *726:9 0.0359742
17 *40:13 *755:9 0
18 *40:13 *815:9 0.000786329
19 *40:13 *818:9 0.000615112
20 *40:13 *821:9 0.000332775
21 *40:13 *856:9 0.000786329
22 *40:19 *758:17 0.00141954
23 *40:19 *778:7 0.00485452
24 *40:19 *780:7 0.000559715
25 *40:21 *647:25 0
26 *40:21 *665:9 0.000102288
27 *40:21 *762:15 0.000101533
28 *40:21 *770:9 0.000829116
29 *40:21 *772:9 0.000610641
30 *40:21 *826:21 0.00571995
31 *40:25 *43:25 0
32 *40:25 *104:22 0.00545414
33 *40:25 *109:21 0
34 *40:25 *112:33 0.110529
35 *40:25 *540:50 0.0192807
36 *40:25 *646:22 0.055558
37 *40:35 *104:22 0.00381452
38 *40:35 *107:21 5.76277e-05
39 *40:35 *112:31 0.000763086
40 *40:35 *112:33 0.00101656
41 *40:35 *118:41 0.000252988
42 *40:35 *542:34 0.000282321
43 *40:35 *644:17 0.0028813
44 *40:37 *42:21 0
45 *40:37 *104:18 0
46 *40:37 *118:11 0
47 *40:37 *142:16 0.00107548
48 *897:io_in[11] *897:io_in[12] 0
49 *32:25 *40:37 0.00619536
50 *36:21 *40:37 0.000633369
*RES
1 io_in[19] *40:7 10.1854 
2 *40:7 *40:11 48.1987 
3 *40:11 *40:13 593.85 
4 *40:13 *40:19 25.8019 
5 *40:19 *40:21 226.045 
6 *40:21 *40:23 15 
7 *40:23 *40:25 1220.76 
8 *40:25 *40:35 39.1051 
9 *40:35 *40:37 112.831 
10 *40:37 *897:io_in[12] 8.50027 
*END

*D_NET *42 0.621251
*CONN
*P io_in[20] I
*I *897:io_in[13] I *D soc_sys
*CAP
1 io_in[20] 0.00198749
2 *897:io_in[13] 0.000400633
3 *42:21 0.00250898
4 *42:19 0.00210835
5 *42:17 0.0503495
6 *42:15 0.0503495
7 *42:13 0.13849
8 *42:11 0.140478
9 *897:io_in[13] *897:io_in[14] 0
10 *42:11 *75:34 0.0051204
11 *42:11 *116:27 0.00953655
12 *42:13 *685:9 0
13 *42:13 *692:9 0
14 *42:13 *695:9 0.0765011
15 *42:13 *707:9 8.48805e-05
16 *42:13 *715:9 0
17 *42:13 *728:9 0
18 *42:13 *854:9 0.00735627
19 *42:13 *857:9 0
20 *42:13 *890:9 0
21 *42:17 *103:35 0.121712
22 *42:17 *108:13 0.000746924
23 *42:21 *114:9 0.00120912
24 *897:io_in[12] *897:io_in[13] 0
25 *33:25 *42:21 0.00586398
26 *34:25 *42:21 0.00618931
27 *35:25 *42:21 0.000162901
28 *36:21 *42:21 9.5085e-05
29 *37:21 *42:21 0
30 *40:37 *42:21 0
*RES
1 io_in[20] *42:11 35.7582 
2 *42:11 *42:13 3513.12 
3 *42:13 *42:15 8 
4 *42:15 *42:17 234.987 
5 *42:17 *42:19 8 
6 *42:19 *42:21 109.309 
7 *42:21 *897:io_in[13] 8.9296 
*END

*D_NET *43 0.572377
*CONN
*P io_in[21] I
*I *897:io_in[14] I *D soc_sys
*CAP
1 io_in[21] 0.00258098
2 *897:io_in[14] 0.0010481
3 *43:37 0.0025771
4 *43:35 0.001529
5 *43:33 0.011089
6 *43:31 0.0113015
7 *43:25 0.0086454
8 *43:23 0.00853611
9 *43:13 0.182907
10 *43:11 0.185385
11 *897:io_in[14] *897:io_in[15] 0
12 *43:11 *75:34 0.0135961
13 *43:11 *80:26 0.0135961
14 *43:13 *551:21 0
15 *43:13 *584:21 0.00446427
16 *43:23 *649:25 0.000376433
17 *43:23 *650:45 0.000385829
18 *43:25 *109:21 0.0272758
19 *43:25 *646:22 0.00068782
20 *43:25 *650:45 0.00612976
21 *43:33 *44:25 0.0111261
22 *43:33 *109:21 0.00057123
23 *43:33 *113:13 4.07799e-05
24 *43:33 *114:27 0.00430392
25 *43:33 *540:19 0.00114177
26 *43:33 *541:27 0.0268017
27 *43:33 *575:17 0.00371366
28 *43:33 *640:17 0.00781514
29 *43:33 *651:41 0.0145613
30 *43:37 io_out[37] 0.000395262
31 *43:37 *897:io_in[30] 0.000603003
32 *43:37 *109:9 0.000343297
33 *43:37 *113:9 0.00992346
34 *897:io_in[13] *897:io_in[14] 0
35 *39:41 *43:37 0.0089253
36 *40:25 *43:25 0
*RES
1 io_in[21] *43:11 44.0616 
2 *43:11 *43:13 634.723 
3 *43:13 *43:23 32.3732 
4 *43:23 *43:25 297.436 
5 *43:25 *43:31 26.1382 
6 *43:31 *43:33 79.0533 
7 *43:33 *43:35 8 
8 *43:35 *43:37 126.212 
9 *43:37 *897:io_in[14] 10.3893 
*END

*D_NET *44 0.554374
*CONN
*P io_in[22] I
*I *897:io_in[15] I *D soc_sys
*CAP
1 io_in[22] 0.000269076
2 *897:io_in[15] 0.000817387
3 *44:29 0.00374929
4 *44:27 0.0029319
5 *44:25 0.012658
6 *44:23 0.012658
7 *44:21 0.0548979
8 *44:19 0.0551794
9 *44:13 0.110673
10 *44:11 0.110661
11 *897:io_in[15] *897:io_in[16] 0
12 *44:11 *75:34 0.000758536
13 *44:11 *80:26 0.000758536
14 *44:13 *894:finetune 0.000196962
15 *44:13 *749:17 0
16 *44:19 *69:21 0.000197823
17 *44:19 *774:22 0
18 *44:21 *545:15 0
19 *44:21 *578:21 0
20 *44:21 *748:17 0.0657136
21 *44:21 *749:17 0.0215738
22 *44:25 *65:21 0.0495221
23 *44:25 *113:13 6.59383e-06
24 *44:25 *575:17 0.00371727
25 *44:25 *651:41 0.0231693
26 *44:29 *74:31 0.000977231
27 *44:29 *107:17 2.57016e-05
28 *44:29 *108:9 0.00952189
29 *44:29 *109:9 0
30 *44:29 *112:21 0.000118603
31 *44:29 *118:19 0
32 *44:29 *143:19 0.00249539
33 *897:io_in[14] *897:io_in[15] 0
34 *38:21 *44:29 0
35 *39:41 *44:29 0
36 *43:33 *44:25 0.0111261
*RES
1 io_in[22] *44:11 20.2766 
2 *44:11 *44:13 381.745 
3 *44:13 *44:19 17.0864 
4 *44:19 *44:21 253.923 
5 *44:21 *44:23 8 
6 *44:23 *44:25 94.8957 
7 *44:25 *44:27 8 
8 *44:27 *44:29 131.846 
9 *44:29 *897:io_in[15] 9.78827 
*END

*D_NET *45 0.37043
*CONN
*P io_in[23] I
*I *897:io_in[16] I *D soc_sys
*CAP
1 io_in[23] 0.00697276
2 *897:io_in[16] 0.000812262
3 *45:49 0.00357887
4 *45:47 0.00276661
5 *45:45 0.000965313
6 *45:39 0.00127252
7 *45:33 0.00265614
8 *45:31 0.00351242
9 *45:27 0.00135569
10 *45:21 0.128952
11 *45:19 0.132898
12 *45:15 0.00509737
13 *45:9 0.00793202
14 *897:io_in[16] *897:io_in[17] 0
15 *45:21 *46:35 0
16 *45:21 *87:25 0
17 *45:21 *88:6 0.00242524
18 *45:21 *89:27 0.015744
19 *45:21 *123:17 0.00801285
20 *45:27 *76:57 0.000389301
21 *45:31 *46:35 0.00147863
22 *45:31 *87:25 0.000175586
23 *45:31 *91:11 0.000624985
24 *45:33 *46:35 0.00228696
25 *45:33 *46:43 0.00770152
26 *45:33 *50:19 0.00091223
27 *45:33 *76:19 0.000710572
28 *45:33 *82:9 0.00196197
29 *45:33 *91:11 0.000302076
30 *45:33 *93:17 0.00047008
31 *45:39 *76:45 1.90292e-05
32 *45:45 *53:31 0.00283235
33 *45:45 *57:19 0.00283092
34 *45:45 *131:7 0.000121265
35 *45:45 *132:7 0.000121265
36 *45:49 *897:io_in[28] 0.00102853
37 *45:49 *49:19 0
38 *45:49 *74:23 0.00618552
39 *45:49 *74:31 0.000929477
40 *45:49 *97:21 0.000682264
41 *45:49 *98:17 0.000302277
42 *45:49 *103:15 0.00263515
43 *45:49 *108:9 0.00630096
44 *45:49 *143:19 0.00447395
45 *897:io_in[15] *897:io_in[16] 0
*RES
1 io_in[23] *45:9 46.1546 
2 *45:9 *45:15 37.9779 
3 *45:15 *45:19 21.2795 
4 *45:19 *45:21 2980.68 
5 *45:21 *45:27 16.7429 
6 *45:27 *45:31 39.1086 
7 *45:31 *45:33 128.014 
8 *45:33 *45:39 16.6571 
9 *45:39 *45:45 45.6825 
10 *45:45 *45:47 8 
11 *45:47 *45:49 171.286 
12 *45:49 *897:io_in[16] 9.78827 
*END

*D_NET *46 0.456223
*CONN
*P io_in[24] I
*I *897:io_in[17] I *D soc_sys
*CAP
1 io_in[24] 0.000223035
2 *897:io_in[17] 0.00143807
3 *46:51 0.00385938
4 *46:49 0.00364547
5 *46:43 0.00566652
6 *46:41 0.00451436
7 *46:35 0.0506159
8 *46:33 0.0508148
9 *46:27 0.00990387
10 *46:25 0.00999043
11 *46:19 0.00957173
12 *46:17 0.00949144
13 *46:11 0.0130368
14 *46:9 0.0129827
15 *897:io_in[17] *897:io_in[18] 0
16 *897:io_in[17] *897:io_in[22] 8.68414e-05
17 *897:io_in[17] *74:31 0.00139284
18 *897:io_in[17] *97:21 0.000242014
19 *897:io_in[17] *143:19 0.00139547
20 *46:11 *47:11 0.00545653
21 *46:11 *122:25 0.0251831
22 *46:19 *83:19 0
23 *46:19 *122:17 0
24 *46:25 *47:17 7.21817e-05
25 *46:27 *83:19 0.0256573
26 *46:35 *50:19 0.0534043
27 *46:35 *82:9 0.00540961
28 *46:35 *83:19 0
29 *46:35 *87:25 0.0922248
30 *46:35 *87:33 0.00384669
31 *46:35 *91:11 0.00061512
32 *46:35 *127:17 0.024274
33 *46:41 io_oeb[34] 3.56565e-05
34 *46:41 *94:15 3.56565e-05
35 *46:43 *50:19 0
36 *46:43 *76:19 4.7492e-05
37 *46:43 *89:15 0.000524899
38 *46:43 *91:11 0.000108674
39 *46:43 *93:17 0.000278014
40 *46:43 *129:27 0.000440571
41 *46:43 *133:15 0.000518392
42 *46:49 *127:7 0.000190638
43 *46:49 *129:27 7.94099e-05
44 *46:49 *130:7 0
45 *46:51 io_out[36] 0.000127411
46 *46:51 *51:25 0.0105461
47 *46:51 *103:23 0.00666411
48 *46:51 *110:9 0.000143752
49 *897:io_in[16] *897:io_in[17] 0
50 *45:21 *46:35 0
51 *45:31 *46:35 0.00147863
52 *45:33 *46:35 0.00228696
53 *45:33 *46:43 0.00770152
*RES
1 io_in[24] *46:9 8.76347 
2 *46:9 *46:11 56.3587 
3 *46:11 *46:17 16.7859 
4 *46:17 *46:19 213.544 
5 *46:19 *46:25 16.9147 
6 *46:25 *46:27 329.751 
7 *46:27 *46:33 16.6571 
8 *46:33 *46:35 2044.69 
9 *46:35 *46:41 16.2277 
10 *46:41 *46:43 147.341 
11 *46:43 *46:49 18.632 
12 *46:49 *46:51 137.481 
13 *46:51 *897:io_in[17] 44.6268 
*END

*D_NET *47 0.392031
*CONN
*P io_in[25] I
*I *897:io_in[18] I *D soc_sys
*CAP
1 io_in[25] 0.000273699
2 *897:io_in[18] 0.00061214
3 *47:41 0.00605895
4 *47:39 0.00600554
5 *47:33 0.00863981
6 *47:19 0.0672063
7 *47:17 0.0592831
8 *47:11 0.0130954
9 *47:9 0.0132113
10 *897:io_in[18] *897:io_in[19] 0
11 *47:11 *48:11 0.00555864
12 *47:11 *85:30 0.00554267
13 *47:11 *122:25 0.000193105
14 *47:19 io_oeb[27] 0.00106321
15 *47:19 *48:27 0.0494682
16 *47:19 *49:17 0.00210474
17 *47:19 *49:19 0
18 *47:19 *50:11 0.00873121
19 *47:19 *53:13 0.00104626
20 *47:19 *53:21 0.00290676
21 *47:19 *54:11 0.00441767
22 *47:19 *55:11 0.00148149
23 *47:19 *57:11 0.00122909
24 *47:19 *83:19 0
25 *47:19 *84:26 0.0920803
26 *47:19 *85:22 8.30196e-05
27 *47:19 *93:27 0.00761821
28 *47:19 *122:17 0
29 *47:19 *123:9 3.17684e-05
30 *47:19 *124:9 0
31 *47:33 *76:45 4.88479e-05
32 *47:33 *76:57 0
33 *47:33 *80:20 5.3388e-05
34 *47:33 *81:12 0.000334466
35 *47:33 *82:15 0.00013423
36 *47:33 *84:20 0.000104163
37 *47:33 *85:16 0.0008786
38 *47:33 *85:20 2.05577e-05
39 *47:33 *88:6 0
40 *47:33 *123:15 0.00135307
41 *47:33 *131:23 4.84709e-06
42 *47:39 *78:7 0.000117957
43 *47:41 *49:19 0.0178747
44 *47:41 *57:19 0
45 *47:41 *73:17 0.000214051
46 *47:41 *74:31 0.000342389
47 *47:41 *107:9 0.00523938
48 *47:41 *114:9 0.000674372
49 *47:41 *122:9 0.00116479
50 *897:io_in[17] *897:io_in[18] 0
51 *46:11 *47:11 0.00545653
52 *46:25 *47:17 7.21817e-05
*RES
1 io_in[25] *47:9 8.72613 
2 *47:9 *47:11 61.9995 
3 *47:11 *47:17 16.5283 
4 *47:17 *47:19 2301.05 
5 *47:19 *47:33 43.8824 
6 *47:33 *47:39 17.2152 
7 *47:39 *47:41 239.602 
8 *47:41 *897:io_in[18] 9.35893 
*END

*D_NET *48 0.40847
*CONN
*P io_in[26] I
*I *897:io_in[19] I *D soc_sys
*CAP
1 io_in[26] 0.000277064
2 *897:io_in[19] 0.00128729
3 *48:43 0.00406776
4 *48:41 0.00303644
5 *48:35 0.00219701
6 *48:33 0.00231699
7 *48:27 0.0111481
8 *48:25 0.010966
9 *48:19 0.00913399
10 *48:17 0.00909869
11 *48:11 0.0446733
12 *48:9 0.0447918
13 *897:io_in[19] *897:io_in[20] 0
14 *897:io_in[19] *897:io_in[22] 8.03383e-05
15 *897:io_in[19] *107:9 0.00126276
16 *897:io_in[19] *114:9 0.00126059
17 *48:9 *122:23 0
18 *48:11 io_oeb[27] 0
19 *48:11 *49:17 0.00109845
20 *48:11 *50:11 0.00462588
21 *48:11 *53:13 0
22 *48:11 *53:21 0.00153954
23 *48:11 *54:11 0.000575258
24 *48:11 *84:26 0.00265914
25 *48:11 *85:30 0.108594
26 *48:11 *130:17 0.00027497
27 *48:17 io_out[31] 1.398e-05
28 *48:19 *84:26 0.00260339
29 *48:19 *85:22 0.0203642
30 *48:19 *122:17 0
31 *48:19 *130:17 0.00455813
32 *48:27 *49:19 0.0170963
33 *48:27 *55:11 0.00579573
34 *48:27 *57:11 0.0042141
35 *48:27 *76:53 0.00427017
36 *48:27 *78:9 0.00286128
37 *48:27 *123:9 0.000254226
38 *48:33 *78:9 0.000408082
39 *48:33 *83:11 0.000773957
40 *48:33 *123:9 0.000225953
41 *48:35 *49:19 0.00142854
42 *48:35 *57:11 0.000342314
43 *48:35 *78:9 0.00166982
44 *48:35 *83:11 0.0014247
45 *48:35 *87:15 0.00100507
46 *48:35 *103:15 6.44037e-05
47 *48:35 *123:9 0.000381582
48 *48:35 *133:17 0.00237206
49 *48:41 *133:15 0.000117359
50 *48:41 *136:7 9.94604e-05
51 *48:43 io_out[37] 0.000116093
52 *48:43 *897:io_in[26] 0.00165294
53 *48:43 *56:29 0.000674677
54 *48:43 *98:17 0.00161939
55 *48:43 *109:9 0.00226237
56 *48:43 *113:9 0.00210835
57 *48:43 *116:21 0.000110915
58 *48:43 *121:9 0.00103946
59 *48:43 *124:9 0.000859421
60 *48:43 *127:9 0.00274873
61 *48:43 *130:9 0.00209225
62 *48:43 *136:9 0.000848761
63 *897:io_in[18] *897:io_in[19] 0
64 *47:11 *48:11 0.00555864
65 *47:19 *48:27 0.0494682
*RES
1 io_in[26] *48:9 8.68133 
2 *48:9 *48:11 256.461 
3 *48:11 *48:17 16.3565 
4 *48:17 *48:19 322.004 
5 *48:19 *48:25 16.4853 
6 *48:25 *48:27 692.458 
7 *48:27 *48:33 16.8821 
8 *48:33 *48:35 107.901 
9 *48:35 *48:41 16.6571 
10 *48:41 *48:43 162.835 
11 *48:43 *897:io_in[19] 42.703 
*END

*D_NET *49 0.254194
*CONN
*P io_in[27] I
*I *897:io_in[20] I *D soc_sys
*CAP
1 io_in[27] 0.00770091
2 *897:io_in[20] 0.000690432
3 *49:19 0.085861
4 *49:17 0.0928715
5 *897:io_in[20] *897:io_in[21] 0
6 *49:17 io_oeb[27] 0
7 *49:17 *84:26 0.00158304
8 *49:17 *124:17 0.000325813
9 *49:19 *73:17 0.00229914
10 *49:19 *74:31 0.00589933
11 *49:19 *78:9 0.0109998
12 *49:19 *83:19 0
13 *49:19 *86:9 0.000690043
14 *49:19 *98:13 0.00222072
15 *49:19 *103:15 0.00344964
16 *897:io_in[19] *897:io_in[20] 0
17 *45:49 *49:19 0
18 *47:19 *49:17 0.00210474
19 *47:19 *49:19 0
20 *47:41 *49:19 0.0178747
21 *48:11 *49:17 0.00109845
22 *48:27 *49:19 0.0170963
23 *48:35 *49:19 0.00142854
*RES
1 io_in[27] *49:17 49.3904 
2 *49:17 *49:19 2334.15 
3 *49:19 *897:io_in[20] 9.4448 
*END

*D_NET *50 0.319654
*CONN
*P io_in[28] I
*I *897:io_in[21] I *D soc_sys
*CAP
1 io_in[28] 0.000648923
2 *897:io_in[21] 0.000227625
3 *50:19 0.0354012
4 *50:17 0.0357471
5 *50:11 0.0286002
6 *50:9 0.0286756
7 *897:io_in[21] *897:io_in[22] 0
8 *50:9 *124:17 0.000325813
9 *50:11 *53:13 6.99019e-05
10 *50:11 *84:26 0.00654111
11 *50:17 *53:13 0.000112392
12 *50:19 *53:23 0
13 *50:19 *53:31 9.62472e-05
14 *50:19 *54:19 0.0850134
15 *50:19 *76:19 0.00127088
16 *50:19 *82:9 0.00920809
17 *50:19 *83:19 0
18 *50:19 *91:11 0.000457952
19 *50:19 *111:21 0.000830829
20 *50:19 *112:9 0.00121883
21 *50:19 *114:9 0
22 *50:19 *118:11 0
23 *50:19 *127:17 0.0156381
24 *50:19 *129:27 0.00143808
25 *50:19 *133:15 0.000457688
26 *897:io_in[20] *897:io_in[21] 0
27 *45:33 *50:19 0.00091223
28 *46:35 *50:19 0.0534043
29 *46:43 *50:19 0
30 *47:19 *50:11 0.00873121
31 *48:11 *50:11 0.00462588
*RES
1 io_in[28] *50:9 9.62213 
2 *50:9 *50:11 96.9061 
3 *50:11 *50:17 17.2152 
4 *50:17 *50:19 1651.69 
5 *50:19 *897:io_in[21] 8.58613 
*END

*D_NET *51 0.239329
*CONN
*P io_in[29] I
*I *897:io_in[22] I *D soc_sys
*CAP
1 io_in[29] 0.00361163
2 *897:io_in[22] 0.00117083
3 *51:25 0.00458584
4 *51:23 0.00740673
5 *51:11 0.0901389
6 *51:9 0.0897589
7 *897:io_in[22] *897:io_in[23] 0
8 *51:11 *76:45 0.00116183
9 *51:11 *80:20 0
10 *51:11 *131:25 0
11 *51:11 *541:57 0.000157097
12 *51:23 *85:16 0.00060274
13 *51:23 *87:15 0
14 *51:23 *98:13 0
15 *51:23 *121:23 0.00109298
16 *51:23 *131:23 9.897e-06
17 *51:25 io_oeb[35] 0.000105613
18 *51:25 io_out[35] 0.00113031
19 *51:25 io_out[36] 0.000105613
20 *51:25 io_out[37] 0.000393182
21 *51:25 *56:29 0.00056206
22 *51:25 *110:9 0.00498464
23 *51:25 *122:17 0.00787845
24 *51:25 *131:9 0.00926544
25 *51:25 *133:29 0.000476761
26 *51:25 *136:9 0.00401597
27 *897:io_in[17] *897:io_in[22] 8.68414e-05
28 *897:io_in[19] *897:io_in[22] 8.03383e-05
29 *897:io_in[21] *897:io_in[22] 0
30 *46:51 *51:25 0.0105461
*RES
1 io_in[29] *51:9 18.3432 
2 *51:9 *51:11 298.476 
3 *51:11 *51:23 21.1615 
4 *51:23 *51:25 261.435 
5 *51:25 *897:io_in[22] 10.7328 
*END

*D_NET *53 0.241748
*CONN
*P io_in[30] I
*I *897:io_in[23] I *D soc_sys
*CAP
1 io_in[30] 0.00618533
2 *897:io_in[23] 0.000355828
3 *53:31 0.00508986
4 *53:29 0.00486045
5 *53:23 0.0292146
6 *53:21 0.0388408
7 *53:13 0.015938
8 *897:io_in[23] *897:io_in[24] 0
9 *53:21 *84:26 0.00218963
10 *53:23 *54:19 0
11 *53:23 *55:19 0.00455574
12 *53:23 *72:9 0.00805036
13 *53:23 *73:17 0.00036662
14 *53:23 *83:19 0.0853874
15 *53:29 *92:7 1.07187e-05
16 *53:31 *54:19 0.000162901
17 *53:31 *55:19 0.0201995
18 *53:31 *57:19 0.00517836
19 *53:31 *72:9 0.00616914
20 *53:31 *114:9 0.000389118
21 *897:io_in[22] *897:io_in[23] 0
22 *45:45 *53:31 0.00283235
23 *47:19 *53:13 0.00104626
24 *47:19 *53:21 0.00290676
25 *48:11 *53:13 0
26 *48:11 *53:21 0.00153954
27 *50:11 *53:13 6.99019e-05
28 *50:17 *53:13 0.000112392
29 *50:19 *53:23 0
30 *50:19 *53:31 9.62472e-05
*RES
1 io_in[30] *53:13 25.3992 
2 *53:13 *53:21 49.1203 
3 *53:21 *53:23 1107.99 
4 *53:23 *53:29 16.2277 
5 *53:29 *53:31 269.886 
6 *53:31 *897:io_in[23] 8.84373 
*END

*D_NET *54 0.217064
*CONN
*P io_in[31] I
*I *897:io_in[24] I *D soc_sys
*CAP
1 io_in[31] 0.000599657
2 *897:io_in[24] 0.00027474
3 *54:19 0.0242208
4 *54:17 0.0245161
5 *54:11 0.0133305
6 *54:9 0.01336
7 *897:io_in[24] *897:io_in[25] 0
8 *54:9 *124:17 0.000248617
9 *54:11 *55:11 0.000109912
10 *54:11 *84:26 0.000834137
11 *54:11 *130:17 0.00581053
12 *54:17 *55:9 5.33251e-05
13 *54:19 *55:19 0.0435368
14 *897:io_in[23] *897:io_in[24] 0
15 *47:19 *54:11 0.00441767
16 *48:11 *54:11 0.000575258
17 *50:19 *54:19 0.0850134
18 *53:23 *54:19 0
19 *53:31 *54:19 0.000162901
*RES
1 io_in[31] *54:9 9.4952 
2 *54:9 *54:11 49.0523 
3 *54:11 *54:17 17.1293 
4 *54:17 *54:19 1095.31 
5 *54:19 *897:io_in[24] 8.672 
*END

*D_NET *55 0.177048
*CONN
*P io_in[32] I
*I *897:io_in[25] I *D soc_sys
*CAP
1 io_in[32] 0.000744448
2 *897:io_in[25] 0.000324081
3 *55:19 0.0101694
4 *55:17 0.0103071
5 *55:11 0.0287945
6 *55:9 0.0290771
7 *897:io_in[25] *897:io_in[26] 0
8 *55:9 *124:17 0.000325813
9 *55:11 *93:27 0.0164814
10 *55:11 *130:17 0.00115255
11 *55:19 *72:9 0.00393892
12 *897:io_in[24] *897:io_in[25] 0
13 *47:19 *55:11 0.00148149
14 *48:27 *55:11 0.00579573
15 *53:23 *55:19 0.00455574
16 *53:31 *55:19 0.0201995
17 *54:11 *55:11 0.000109912
18 *54:17 *55:9 5.33251e-05
19 *54:19 *55:19 0.0435368
*RES
1 io_in[32] *55:9 9.79387 
2 *55:9 *55:11 95.6368 
3 *55:11 *55:17 16.8717 
4 *55:17 *55:19 562.165 
5 *55:19 *897:io_in[25] 8.75787 
*END

*D_NET *56 0.132688
*CONN
*P io_in[33] I
*I *897:io_in[26] I *D soc_sys
*CAP
1 io_in[33] 0.00703553
2 *897:io_in[26] 0.00141154
3 *56:29 0.0134947
4 *56:15 0.0469634
5 *56:13 0.0419157
6 *897:io_in[26] *897:io_in[27] 0
7 *897:io_in[26] *113:9 0.00165995
8 *56:15 *126:16 0
9 *56:15 *542:22 9.07644e-06
10 *56:15 *576:13 0.00575177
11 *56:29 io_out[36] 0.00146362
12 *56:29 *897:io_in[29] 0.00417956
13 *56:29 *110:9 0.000352944
14 *56:29 *113:9 0.000409177
15 *56:29 *116:21 0.0023669
16 *56:29 *125:24 0.00232845
17 *56:29 *136:9 0.000455731
18 *897:io_in[25] *897:io_in[26] 0
19 *48:43 *897:io_in[26] 0.00165294
20 *48:43 *56:29 0.000674677
21 *51:25 *56:29 0.00056206
*RES
1 io_in[33] *56:13 28.8861 
2 *56:13 *56:15 124.831 
3 *56:15 *56:29 40.0597 
4 *56:29 *897:io_in[26] 31.6629 
*END

*D_NET *57 0.088183
*CONN
*P io_in[34] I
*I *897:io_in[27] I *D soc_sys
*CAP
1 io_in[34] 0.000601772
2 *897:io_in[27] 0.000461928
3 *57:19 0.00559218
4 *57:17 0.00548323
5 *57:11 0.0148465
6 *57:9 0.0150953
7 *897:io_in[27] *142:12 5.8051e-05
8 *57:11 io_oeb[34] 0.000193346
9 *57:11 *76:53 0.00080951
10 *57:11 *83:11 0.000302506
11 *57:11 *87:15 0.00010083
12 *57:11 *93:27 0.0101808
13 *57:11 *97:13 0.00236146
14 *57:11 *132:17 0.00559116
15 *57:17 *58:15 1.21187e-05
16 *57:17 *83:9 0.000106151
17 *57:19 *72:9 0.00328748
18 *57:19 *73:17 0.000753094
19 *57:19 *114:9 0.00457795
20 *57:19 *122:9 0.00397277
21 *897:io_in[26] *897:io_in[27] 0
22 *45:45 *57:19 0.00283092
23 *47:19 *57:11 0.00122909
24 *47:41 *57:19 0
25 *48:27 *57:11 0.0042141
26 *48:35 *57:11 0.000342314
27 *53:31 *57:19 0.00517836
*RES
1 io_in[34] *57:9 9.24133 
2 *57:9 *57:11 59.8416 
3 *57:11 *57:17 16.7859 
4 *57:17 *57:19 215.656 
5 *57:19 *897:io_in[27] 9.01547 
*END

*D_NET *58 0.0495677
*CONN
*P io_in[35] I
*I *897:io_in[28] I *D soc_sys
*CAP
1 io_in[35] 0.00265829
2 *897:io_in[28] 0.00858801
3 *58:15 0.0112463
4 *897:io_in[28] io_out[36] 0.00510463
5 *897:io_in[28] *897:io_in[29] 1.58513e-05
6 *897:io_in[28] *897:io_in[30] 3.3698e-05
7 *897:io_in[28] *73:15 0.00140717
8 *897:io_in[28] *74:23 0.000844136
9 *897:io_in[28] *97:13 0.00355425
10 *897:io_in[28] *97:21 0.00970072
11 *897:io_in[28] *98:17 0.00104473
12 *897:io_in[28] *108:9 0.000335358
13 *897:io_in[28] *123:9 0.000326527
14 *897:io_in[28] *133:17 0.000816832
15 *897:io_in[28] *142:12 0.000133004
16 *58:15 *83:9 1.10975e-05
17 *58:15 *133:29 0.00270643
18 *45:49 *897:io_in[28] 0.00102853
19 *57:17 *58:15 1.21187e-05
*RES
1 io_in[35] *58:15 36.5123 
2 *58:15 *897:io_in[28] 48.0829 
*END

*D_NET *59 0.0123415
*CONN
*P io_in[36] I
*I *897:io_in[29] I *D soc_sys
*CAP
1 io_in[36] 0.00341594
2 *897:io_in[29] 0.00341594
3 *897:io_in[29] io_out[36] 0.000585948
4 *897:io_in[29] *897:io_in[30] 0.000339611
5 *897:io_in[29] *112:15 0.000350911
6 *897:io_in[29] *143:17 3.77119e-05
7 *897:io_in[28] *897:io_in[29] 1.58513e-05
8 *56:29 *897:io_in[29] 0.00417956
*RES
1 io_in[36] *897:io_in[29] 30.9483 
*END

*D_NET *60 0.0301519
*CONN
*P io_in[37] I
*I *897:io_in[30] I *D soc_sys
*CAP
1 io_in[37] 0.00748384
2 *897:io_in[30] 0.00748384
3 *897:io_in[30] io_out[36] 1.3091e-05
4 *897:io_in[30] io_out[37] 0.0106839
5 *897:io_in[30] *897:io_in[0] 0
6 *897:io_in[30] *74:39 0.000211226
7 *897:io_in[30] *97:21 9.48743e-05
8 *897:io_in[30] *109:9 0.00071593
9 *897:io_in[30] *112:15 1.73154e-05
10 *897:io_in[30] *112:21 0.000202507
11 *897:io_in[30] *113:9 0.000991472
12 *897:io_in[30] *114:17 0.000543488
13 *897:io_in[30] *118:19 0.000122544
14 *897:io_in[30] *136:15 6.65013e-06
15 *897:io_in[30] *143:17 0.000203613
16 *897:io_in[28] *897:io_in[30] 3.3698e-05
17 *897:io_in[29] *897:io_in[30] 0.000339611
18 *39:41 *897:io_in[30] 0.000401308
19 *43:37 *897:io_in[30] 0.000603003
*RES
1 io_in[37] *897:io_in[30] 44.4293 
*END

*D_NET *65 0.862275
*CONN
*P io_in[7] I
*I *897:io_in[0] I *D soc_sys
*CAP
1 io_in[7] 0.000313429
2 *897:io_in[0] 0.00498978
3 *65:21 0.0348637
4 *65:19 0.029895
5 *65:13 0.0298164
6 *65:11 0.0297954
7 *65:9 0.0387574
8 *65:7 0.0390708
9 *897:io_in[0] io_out[37] 0
10 *897:io_in[0] *74:37 0
11 *897:io_in[0] *107:17 0.000623784
12 *897:io_in[0] *108:9 0.000726071
13 *897:io_in[0] *109:9 0.000395262
14 *897:io_in[0] *112:21 0.000566573
15 *897:io_in[0] *118:19 0.000395262
16 *65:9 *66:9 0.0312777
17 *65:9 *69:25 0.000444032
18 *65:9 *141:25 0.1129
19 *65:13 *898:wbs_adr_i[22] 0.000691145
20 *65:13 *898:wbs_dat_i[27] 0.000451076
21 *65:13 *113:21 0.107985
22 *65:13 *142:26 0.158649
23 *65:13 *847:9 0.00283447
24 *65:19 *844:17 9.86551e-06
25 *65:21 *113:13 0.000266479
26 *65:21 *142:18 0.122538
27 *65:21 *651:41 0.0102224
28 *65:21 *657:25 0.0522677
29 *65:21 *794:19 0.00030938
30 *65:21 *817:13 0.000578978
31 *897:io_in[30] *897:io_in[0] 0
32 *24:9 *65:9 0.00111858
33 *44:25 *65:21 0.0495221
*RES
1 io_in[7] *65:7 8.50027 
2 *65:7 *65:9 1433.19 
3 *65:9 *65:11 15 
4 *65:11 *65:13 1697.18 
5 *65:13 *65:19 23.3211 
6 *65:19 *65:21 237.091 
7 *65:21 *897:io_in[0] 30.2408 
*END

*D_NET *66 0.856321
*CONN
*P io_in[8] I
*I *897:io_in[1] I *D soc_sys
*CAP
1 io_in[8] 0.000125138
2 *897:io_in[1] 0.00509794
3 *66:13 0.135698
4 *66:11 0.1306
5 *66:9 0.0652939
6 *66:7 0.065419
7 *897:io_in[1] *67:265 0.000716678
8 *897:io_in[1] *104:18 0.000956636
9 *897:io_in[1] *141:9 0.00225549
10 *897:io_in[1] *143:37 1.45646e-05
11 *66:9 *69:25 1.73694e-05
12 *66:9 *70:22 0.0879846
13 *66:9 *71:33 0.0226058
14 *66:9 *72:17 0.0166595
15 *66:9 *73:25 0.00027723
16 *66:9 *108:17 0.0191047
17 *66:9 *141:25 0.0172161
18 *66:9 *142:30 0.0231076
19 *66:13 *557:11 7.2431e-06
20 *66:13 *570:13 0.00288568
21 *66:13 *574:15 0
22 *66:13 *581:15 0.0306195
23 *66:13 *582:11 0.00835536
24 *66:13 *585:17 0.00715449
25 *66:13 *594:15 0.00907527
26 *66:13 *609:14 0.00225012
27 *66:13 *626:14 0.0106828
28 *66:13 *629:14 0.00307457
29 *66:13 *872:13 0.00872864
30 *66:13 *891:15 0.0175466
31 *26:9 *66:9 0.000201676
32 *31:13 *66:13 0.107707
33 *33:21 *66:13 0
34 *35:21 *66:13 0.0236046
35 *65:9 *66:9 0.0312777
*RES
1 io_in[8] *66:7 8.19973 
2 *66:7 *66:9 312.947 
3 *66:9 *66:11 8 
4 *66:11 *66:13 541.359 
5 *66:13 *897:io_in[1] 34.2075 
*END

*D_NET *67 0.643363
*CONN
*P io_in[9] I
*I *897:io_in[2] I *D soc_sys
*CAP
1 io_in[9] 0.00336444
2 *897:io_in[2] 0.000218352
3 *67:265 0.00225089
4 *67:263 0.00203254
5 *67:261 0.0308675
6 *67:259 0.0308675
7 *67:257 0.00256722
8 *67:255 0.00349697
9 *67:249 0.00540013
10 *67:247 0.00532465
11 *67:241 0.00173338
12 *67:239 0.00125001
13 *67:233 0.00107339
14 *67:229 0.00257012
15 *67:223 0.00518564
16 *67:217 0.00807321
17 *67:215 0.00622711
18 *67:209 0.00399688
19 *67:201 0.0042988
20 *67:193 0.00678813
21 *67:191 0.00799815
22 *67:185 0.0065609
23 *67:183 0.00357703
24 *67:181 0.0264983
25 *67:179 0.0264983
26 *67:177 0.00220131
27 *67:175 0.00533061
28 *67:169 0.00557815
29 *67:161 0.00662683
30 *67:159 0.00417799
31 *67:157 0.00430582
32 *67:149 0.00693326
33 *67:143 0.00351087
34 *67:137 0.00744026
35 *67:131 0.00785435
36 *67:127 0.00631929
37 *67:121 0.00873321
38 *67:115 0.00520983
39 *67:105 0.00438535
40 *67:103 0.00413404
41 *67:97 0.0135758
42 *67:95 0.0130046
43 *67:89 0.00329532
44 *67:87 0.00426264
45 *67:81 0.00486998
46 *67:79 0.00555766
47 *67:73 0.00557375
48 *67:71 0.00408808
49 *67:65 0.00288636
50 *67:57 0.00804444
51 *67:55 0.0110479
52 *67:47 0.0131001
53 *67:41 0.010299
54 *67:39 0.00451936
55 *67:35 0.00394736
56 *67:25 0.00651474
57 *67:19 0.00627897
58 *67:13 0.00361067
59 *67:7 0.00553938
60 *67:97 io_out[16] 0
61 *67:201 *72:13 0
62 *67:201 *73:21 0.000255994
63 *67:209 *76:57 0.00452515
64 *67:209 *738:13 0
65 *67:215 *737:13 0.000407368
66 *67:217 *690:9 0.0025755
67 *67:217 *713:9 0
68 *67:217 *780:9 0.00122579
69 *67:217 *807:9 0.00340005
70 *67:223 *897:sram_dat_i[15] 0.00615107
71 *67:223 *796:7 0.000986
72 *67:223 *865:7 0.00246425
73 *67:229 *897:sram_dat_i[6] 0.000730194
74 *67:229 *748:9 0.00117153
75 *67:229 *763:9 0
76 *67:229 *819:9 0.000489005
77 *67:229 *887:7 0.000736462
78 *67:233 *104:26 0.00229031
79 *67:233 *676:9 0.000796006
80 *67:233 *712:9 0.000458395
81 *67:241 *118:57 0.000823472
82 *67:241 *700:11 0.00208105
83 *67:241 *776:13 0.00142011
84 *67:247 *741:19 0.000507767
85 *67:249 *733:9 0
86 *67:249 *763:9 0
87 *67:249 *819:9 0.0103759
88 *67:255 *665:7 0.000185776
89 *67:257 *74:61 0.000952165
90 *67:257 *648:37 0.00726597
91 *67:261 *897:adc_data[4] 0.00351324
92 *67:261 *104:22 0.11989
93 *67:261 *107:21 0.0421826
94 *67:261 *118:41 0.00113421
95 *67:265 *104:18 0.00272539
96 *897:io_in[1] *67:265 0.000716678
97 *12:5 *67:71 0
98 *20:29 *67:181 0
99 *22:5 *67:25 0
100 *26:13 *67:95 0.000185407
101 *37:5 *67:73 0.00926309
*RES
1 io_in[9] *67:7 18.3749 
2 *67:7 *67:13 42.8992 
3 *67:13 *67:19 48.5421 
4 *67:19 *67:25 42.9312 
5 *67:25 *67:35 47.2013 
6 *67:35 *67:39 15.1829 
7 *67:39 *67:41 50.1493 
8 *67:41 *67:47 43.5333 
9 *67:47 *67:55 45.3134 
10 *67:55 *67:57 138.889 
11 *67:57 *67:65 48.5287 
12 *67:65 *67:71 18.4603 
13 *67:71 *67:73 117.761 
14 *67:73 *67:79 23.784 
15 *67:79 *67:81 74.7993 
16 *67:81 *67:87 21.208 
17 *67:87 *67:89 57.8964 
18 *67:89 *67:95 18.632 
19 *67:95 *67:97 285.381 
20 *67:97 *67:103 19.92 
21 *67:103 *67:105 64.9393 
22 *67:105 *67:115 44.0407 
23 *67:115 *67:121 45.7492 
24 *67:121 *67:127 32.1989 
25 *67:127 *67:131 37.0207 
26 *67:131 *67:137 44.0457 
27 *67:137 *67:143 18.8896 
28 *67:143 *67:149 48.7052 
29 *67:149 *67:157 45.5034 
30 *67:157 *67:159 8 
31 *67:159 *67:161 96.6321 
32 *67:161 *67:169 46.0204 
33 *67:169 *67:175 27.0469 
34 *67:175 *67:177 49.445 
35 *67:177 *67:179 8 
36 *67:179 *67:181 95.368 
37 *67:181 *67:183 8 
38 *67:183 *67:185 79.025 
39 *67:185 *67:191 26.36 
40 *67:191 *67:193 111.422 
41 *67:193 *67:201 42.7227 
42 *67:201 *67:209 42.8415 
43 *67:209 *67:215 20.6928 
44 *67:215 *67:217 139.594 
45 *67:217 *67:223 28.5067 
46 *67:223 *67:229 47.6922 
47 *67:229 *67:233 38.2532 
48 *67:233 *67:239 34.9093 
49 *67:239 *67:241 50.1493 
50 *67:241 *67:247 43.0086 
51 *67:247 *67:249 135.544 
52 *67:249 *67:255 18.8037 
53 *67:255 *67:257 92.4064 
54 *67:257 *67:259 8 
55 *67:259 *67:261 222.88 
56 *67:261 *67:263 8 
57 *67:263 *67:265 66.3479 
58 *67:265 *897:io_in[2] 8.63467 
*END

*D_NET *69 0.834926
*CONN
*P io_oeb[10] O
*I *897:io_oeb[3] O *D soc_sys
*CAP
1 io_oeb[10] 0.00026516
2 *897:io_oeb[3] 0.0178994
3 *69:25 0.0345528
4 *69:23 0.0342876
5 *69:21 0.102275
6 *69:19 0.102275
7 *69:17 0.0343909
8 *69:15 0.0522904
9 *69:15 *70:12 7.1935e-05
10 *69:15 *71:23 0.00468478
11 *69:15 *74:21 0.000289182
12 *69:15 *75:28 0.00227563
13 *69:15 *76:19 7.29435e-05
14 *69:17 *634:18 0.00446469
15 *69:17 *771:17 0.00979765
16 *69:17 *772:27 0.000727897
17 *69:17 *772:29 0.0297098
18 *69:21 *71:29 0.251296
19 *69:21 *768:18 0.00324553
20 *69:21 *774:22 0
21 *69:25 *71:33 0.0751026
22 *69:25 *141:25 0.00127062
23 *24:9 *69:25 0.0318423
24 *25:17 *69:17 0.0411789
25 *44:19 *69:21 0.000197823
26 *65:9 *69:25 0.000444032
27 *66:9 *69:25 1.73694e-05
*RES
1 *897:io_oeb[3] *69:15 18.0499 
2 *69:15 *69:17 189.567 
3 *69:17 *69:19 8 
4 *69:19 *69:21 497.396 
5 *69:21 *69:23 8 
6 *69:23 *69:25 177.509 
7 *69:25 io_oeb[10] 8.5432 
*END

*D_NET *70 1.01105
*CONN
*P io_oeb[11] O
*I *897:io_oeb[4] O *D soc_sys
*CAP
1 io_oeb[11] 0.000192379
2 *897:io_oeb[4] 0.0190423
3 *70:22 0.0769594
4 *70:20 0.076767
5 *70:18 0.0517828
6 *70:16 0.0610102
7 *70:12 0.0282697
8 *70:12 *74:21 3.03428e-06
9 *70:12 *76:45 0.00272526
10 *70:12 *105:23 0.00329659
11 *70:16 *569:19 0
12 *70:16 *602:15 0.00710838
13 *70:16 *779:17 0
14 *70:18 *105:29 0.265991
15 *70:18 *111:27 3.60493e-05
16 *70:18 *528:15 0.200655
17 *70:18 *754:13 0.0280043
18 *70:22 *71:33 0.0402059
19 *70:22 *72:17 0.014525
20 *70:22 *73:25 0.0347171
21 *70:22 *108:17 0.0116979
22 *66:9 *70:22 0.0879846
23 *69:15 *70:12 7.1935e-05
*RES
1 *897:io_oeb[4] *70:12 15.9566 
2 *70:12 *70:16 45.8821 
3 *70:16 *70:18 493.618 
4 *70:18 *70:20 8 
5 *70:20 *70:22 381.237 
6 *70:22 io_oeb[11] 8.6104 
*END

*D_NET *71 0.951984
*CONN
*P io_oeb[12] O
*I *897:io_oeb[5] O *D soc_sys
*CAP
1 io_oeb[12] 0.000148476
2 *897:io_oeb[5] 0.0243779
3 *71:33 0.0445766
4 *71:31 0.0444281
5 *71:29 0.0817616
6 *71:27 0.0817616
7 *71:25 0.0549916
8 *71:23 0.0793695
9 *71:23 *72:7 0
10 *71:23 *74:21 0.000756149
11 *71:23 *75:28 0.00456213
12 *71:23 *76:19 4.69078e-05
13 *71:23 *77:15 0.0161479
14 *71:23 *645:13 0.000756636
15 *71:25 *80:22 0
16 *71:25 *604:15 0
17 *71:29 *768:18 0.0825237
18 *71:33 *72:17 0.00228204
19 *71:33 *142:30 0.00518055
20 *24:9 *71:33 0.0016856
21 *24:13 *71:29 0
22 *26:9 *71:33 0.0327322
23 *66:9 *71:33 0.0226058
24 *69:15 *71:23 0.00468478
25 *69:21 *71:29 0.251296
26 *69:25 *71:33 0.0751026
27 *70:22 *71:33 0.0402059
*RES
1 *897:io_oeb[5] *71:23 25.6433 
2 *71:23 *71:25 185.252 
3 *71:25 *71:27 8 
4 *71:27 *71:29 479.192 
5 *71:29 *71:31 8 
6 *71:31 *71:33 276.644 
7 *71:33 io_oeb[12] 8.37147 
*END

*D_NET *72 0.912116
*CONN
*P io_oeb[13] O
*I *897:io_oeb[6] O *D soc_sys
*CAP
1 io_oeb[13] 3.04535e-05
2 *897:io_oeb[6] 0.000470203
3 *72:17 0.0352764
4 *72:15 0.035246
5 *72:13 0.144029
6 *72:11 0.144029
7 *72:9 0.00341661
8 *72:7 0.00388682
9 *72:7 *73:15 0
10 *72:7 *76:19 4.79947e-05
11 *72:9 *73:17 0.00084367
12 *72:13 *698:17 0
13 *72:13 *703:19 1.88299e-05
14 *72:13 *705:25 0.0111519
15 *72:13 *727:13 0
16 *72:13 *743:13 0
17 *72:13 *769:13 0.000349415
18 *72:13 *770:21 0.000248472
19 *72:13 *779:13 0.0932104
20 *72:17 *73:25 0.211167
21 *72:17 *108:17 0.162428
22 *26:9 *72:17 0.0113523
23 *53:23 *72:9 0.00805036
24 *53:31 *72:9 0.00616914
25 *55:19 *72:9 0.00393892
26 *57:19 *72:9 0.00328748
27 *66:9 *72:17 0.0166595
28 *67:201 *72:13 0
29 *70:22 *72:17 0.014525
30 *71:23 *72:7 0
31 *71:33 *72:17 0.00228204
*RES
1 *897:io_oeb[6] *72:7 8.9296 
2 *72:7 *72:9 183.964 
3 *72:9 *72:11 8 
4 *72:11 *72:13 542.562 
5 *72:13 *72:15 8 
6 *72:15 *72:17 2681.36 
7 *72:17 io_oeb[13] 8.07093 
*END

*D_NET *73 0.83918
*CONN
*P io_oeb[14] O
*I *897:io_oeb[7] O *D soc_sys
*CAP
1 io_oeb[14] 0.00106797
2 *897:io_oeb[7] 0.00195462
3 *73:25 0.0850792
4 *73:23 0.0840113
5 *73:21 0.13889
6 *73:19 0.13889
7 *73:17 0.00331908
8 *73:15 0.0052737
9 *73:15 *74:21 8.65211e-05
10 *73:15 *76:19 4.1513e-05
11 *73:15 *78:7 3.39597e-05
12 *73:17 *83:19 0.00669571
13 *73:17 *86:9 0.00362943
14 *73:21 *125:32 0
15 *73:21 *701:15 0
16 *73:21 *702:23 0
17 *73:21 *714:15 0
18 *73:21 *714:27 0.00012076
19 *73:21 *727:13 3.94872e-05
20 *73:21 *743:13 0.102617
21 *73:21 *757:29 0.0148226
22 *73:25 *108:17 0.000305935
23 *897:io_in[28] *73:15 0.00140717
24 *47:41 *73:17 0.000214051
25 *49:19 *73:17 0.00229914
26 *53:23 *73:17 0.00036662
27 *57:19 *73:17 0.000753094
28 *66:9 *73:25 0.00027723
29 *67:201 *73:21 0.000255994
30 *70:22 *73:25 0.0347171
31 *72:7 *73:15 0
32 *72:9 *73:17 0.00084367
33 *72:17 *73:25 0.211167
*RES
1 *897:io_oeb[7] *73:15 29.3723 
2 *73:15 *73:17 153.679 
3 *73:17 *73:19 8 
4 *73:19 *73:21 542.905 
5 *73:21 *73:23 8 
6 *73:23 *73:25 2941.47 
7 *73:25 io_oeb[14] 31.8509 
*END

*D_NET *74 0.794026
*CONN
*P io_oeb[15] O
*I *897:io_oeb[8] O *D soc_sys
*CAP
1 io_oeb[15] 0.135593
2 *897:io_oeb[8] 0.0029633
3 *74:81 0.135593
4 *74:79 0.069777
5 *74:77 0.0779783
6 *74:61 0.0195575
7 *74:43 0.0433236
8 *74:41 0.0319674
9 *74:39 0.0014259
10 *74:37 0.00201977
11 *74:31 0.00338523
12 *74:29 0.00296234
13 *74:23 0.0016366
14 *74:21 0.00442892
15 *74:21 io_out[36] 5.14623e-05
16 *74:21 *76:19 0.000485059
17 *74:21 *104:16 0.000673012
18 *74:21 *105:23 2.8667e-05
19 *74:21 *122:15 8.19352e-05
20 *74:21 *136:7 0.000848743
21 *74:23 *98:17 0.00194678
22 *74:23 *103:15 0.00046521
23 *74:23 *123:9 0.00390081
24 *74:29 *110:7 2.18159e-05
25 *74:31 *107:9 0.00090626
26 *74:31 *143:19 0.0030344
27 *74:39 io_out[37] 0.00164211
28 *74:39 *110:9 0.00405529
29 *74:43 *103:35 0.120488
30 *74:43 *107:21 1.05243e-05
31 *74:43 *108:13 0.0424428
32 *74:43 *112:31 0
33 *74:61 *118:57 0.00150176
34 *74:61 *648:37 0.00461192
35 *74:61 *768:12 2.06571e-05
36 *74:61 *773:40 8.9705e-06
37 *74:61 *774:16 0.000181522
38 *74:77 *103:39 0.000157826
39 *74:77 *773:40 0.00677162
40 *74:77 *775:9 9.01122e-05
41 *74:79 *897:sram_dat_i[23] 1.741e-05
42 *74:79 *897:sram_dat_i[24] 1.88299e-05
43 *74:79 *897:sram_dat_i[25] 0
44 *74:79 *805:11 9.01963e-05
45 *74:79 *805:13 0.0435595
46 *74:79 *873:5 0
47 *74:79 *875:11 0.000785119
48 *897:io_in[0] *74:37 0
49 *897:io_in[17] *74:31 0.00139284
50 *897:io_in[28] *74:23 0.000844136
51 *897:io_in[30] *74:39 0.000211226
52 *38:21 *74:31 0.00364612
53 *44:29 *74:31 0.000977231
54 *45:49 *74:23 0.00618552
55 *45:49 *74:31 0.000929477
56 *47:41 *74:31 0.000342389
57 *49:19 *74:31 0.00589933
58 *67:257 *74:61 0.000952165
59 *69:15 *74:21 0.000289182
60 *70:12 *74:21 3.03428e-06
61 *71:23 *74:21 0.000756149
62 *73:15 *74:21 8.65211e-05
*RES
1 *897:io_oeb[8] *74:21 33.4789 
2 *74:21 *74:23 97.3364 
3 *74:23 *74:29 16.3995 
4 *74:29 *74:31 164.244 
5 *74:31 *74:37 17.2581 
6 *74:37 *74:39 51.5579 
7 *74:39 *74:41 8 
8 *74:41 *74:43 225.671 
9 *74:43 *74:61 49.6789 
10 *74:61 *74:77 38.3582 
11 *74:77 *74:79 263.28 
12 *74:79 *74:81 8 
13 *74:81 io_oeb[15] 3140.48 
*END

*D_NET *75 0.655249
*CONN
*P io_oeb[16] O
*I *897:io_oeb[9] O *D soc_sys
*CAP
1 io_oeb[16] 0.000164261
2 *897:io_oeb[9] 0.0186653
3 *75:34 0.0944913
4 *75:32 0.094327
5 *75:30 0.152239
6 *75:28 0.170904
7 *75:28 *76:19 2.16618e-05
8 *75:28 *81:12 0.000885037
9 *75:28 *543:15 0.00142833
10 *75:28 *598:17 0.00358896
11 *75:28 *619:10 0.00145154
12 *75:30 *125:32 0
13 *75:30 *598:17 0.00201028
14 *75:30 *743:17 0.00961995
15 *75:34 io_out[18] 9.22365e-05
16 *75:34 io_out[21] 0.00055832
17 *75:34 io_out[22] 0.00152813
18 *75:34 *77:21 0.00452462
19 *75:34 *80:26 0.0266155
20 *75:34 *82:21 0.016403
21 *75:34 *116:27 0.0064345
22 *12:27 *75:30 0.0106244
23 *39:15 *75:34 0.00072348
24 *40:11 *75:34 0.0116362
25 *42:11 *75:34 0.0051204
26 *43:11 *75:34 0.0135961
27 *44:11 *75:34 0.000758536
28 *69:15 *75:28 0.00227563
29 *71:23 *75:28 0.00456213
*RES
1 *897:io_oeb[9] *75:28 35.7969 
2 *75:28 *75:30 550.495 
3 *75:30 *75:32 8 
4 *75:32 *75:34 393.712 
5 *75:34 io_oeb[16] 11.5939 
*END

*D_NET *76 0.554869
*CONN
*P io_oeb[17] O
*I *897:io_oeb[10] O *D soc_sys
*CAP
1 io_oeb[17] 0.000519258
2 *897:io_oeb[10] 0.00135011
3 *76:61 0.134059
4 *76:59 0.13354
5 *76:57 0.11613
6 *76:55 0.11613
7 *76:53 0.000770955
8 *76:51 0.00156517
9 *76:45 0.0130401
10 *76:19 0.013596
11 *76:19 *77:15 0
12 *76:45 *80:20 7.61323e-05
13 *76:45 *88:6 0.000252572
14 *76:45 *105:23 0.000389294
15 *76:45 *131:23 0.000549616
16 *76:45 *575:35 0.000486687
17 *76:51 *86:15 0.000100948
18 *76:51 *93:17 0.000217645
19 *76:51 *97:13 5.87077e-06
20 *76:51 *98:13 0.000650653
21 *76:53 *123:9 0.00222721
22 *76:57 *897:wbs_dat_i[1] 0
23 *76:57 *82:15 0.00238069
24 *76:57 *85:20 0
25 *76:57 *87:23 0.000137526
26 *76:57 *542:22 0
27 *76:57 *608:21 0
28 *76:57 *709:15 0
29 *76:57 *738:13 0
30 *45:27 *76:57 0.000389301
31 *45:33 *76:19 0.000710572
32 *45:39 *76:45 1.90292e-05
33 *46:43 *76:19 4.7492e-05
34 *47:33 *76:45 4.88479e-05
35 *47:33 *76:57 0
36 *48:27 *76:53 0.00427017
37 *50:19 *76:19 0.00127088
38 *51:11 *76:45 0.00116183
39 *57:11 *76:53 0.00080951
40 *67:209 *76:57 0.00452515
41 *69:15 *76:19 7.29435e-05
42 *70:12 *76:45 0.00272526
43 *71:23 *76:19 4.69078e-05
44 *72:7 *76:19 4.79947e-05
45 *73:15 *76:19 4.1513e-05
46 *74:21 *76:19 0.000485059
47 *75:28 *76:19 2.16618e-05
*RES
1 *897:io_oeb[10] *76:19 43.6774 
2 *76:19 *76:45 42.9753 
3 *76:45 *76:51 18.1597 
4 *76:51 *76:53 54.375 
5 *76:53 *76:55 8 
6 *76:55 *76:57 370.742 
7 *76:57 *76:59 8 
8 *76:59 *76:61 3012.62 
9 *76:61 io_oeb[17] 11.5482 
*END

*D_NET *77 0.644559
*CONN
*P io_oeb[18] O
*I *897:io_oeb[11] O *D soc_sys
*CAP
1 io_oeb[18] 0.000103004
2 *897:io_oeb[11] 0.0205614
3 *77:21 0.0509293
4 *77:19 0.0508263
5 *77:17 0.150056
6 *77:15 0.170617
7 *77:15 *78:7 0
8 *77:15 *575:35 0.000808511
9 *77:17 *115:14 0
10 *77:17 *570:15 0
11 *77:17 *784:25 0.0301229
12 *77:21 *82:21 0.000710695
13 *77:21 *112:41 0.0147806
14 *77:21 *116:27 0.110492
15 *77:21 *118:79 0.00390643
16 *24:17 *77:17 0.0155307
17 *40:11 *77:21 0.00444193
18 *71:23 *77:15 0.0161479
19 *75:34 *77:21 0.00452462
20 *76:19 *77:15 0
*RES
1 *897:io_oeb[11] *77:15 17.6183 
2 *77:15 *77:17 567.448 
3 *77:17 *77:19 8 
4 *77:19 *77:21 252.976 
5 *77:21 io_oeb[18] 9.87464 
*END

*D_NET *78 0.462922
*CONN
*P io_oeb[19] O
*I *897:io_oeb[12] O *D soc_sys
*CAP
1 io_oeb[19] 0.129919
2 *897:io_oeb[12] 0.000676623
3 *78:31 0.129919
4 *78:29 0.0137839
5 *78:27 0.0141635
6 *78:21 0.0374523
7 *78:19 0.0466662
8 *78:9 0.0118358
9 *78:7 0.00291888
10 *78:9 *87:15 0.00100244
11 *78:19 *897:wb_clk_i 0.00225136
12 *78:19 *897:wbs_adr_i[0] 0.000652592
13 *78:19 *897:wbs_adr_i[1] 4.43325e-05
14 *78:19 *897:wbs_adr_i[2] 0.000373486
15 *78:19 *897:wbs_dat_i[0] 9.44899e-05
16 *78:19 *897:wbs_dat_i[1] 0.000475638
17 *78:19 *897:wbs_dat_i[2] 4.93791e-05
18 *78:19 *897:wbs_sel_i[0] 9.44899e-05
19 *78:19 *897:wbs_sel_i[1] 2.37336e-05
20 *78:19 *897:wbs_sel_i[2] 4.60027e-05
21 *78:19 *897:wbs_stb_i 0.000385189
22 *78:19 *897:wbs_we_i 0.000305288
23 *78:19 *84:24 0.00252512
24 *78:19 *125:32 0.00304759
25 *78:19 *129:35 0.00110665
26 *78:19 *541:57 0.000476481
27 *78:19 *542:22 0.000317349
28 *78:19 *575:35 4.60027e-05
29 *78:19 *608:21 0.000351738
30 *78:19 *619:8 4.60027e-05
31 *78:19 *630:16 0.000744372
32 *78:21 *897:wb_clk_i 0.000313157
33 *78:21 *897:wbs_adr_i[10] 0.000249516
34 *78:21 *897:wbs_adr_i[11] 2.37336e-05
35 *78:21 *897:wbs_adr_i[12] 4.60027e-05
36 *78:21 *897:wbs_adr_i[14] 4.60027e-05
37 *78:21 *897:wbs_adr_i[16] 2.37336e-05
38 *78:21 *897:wbs_adr_i[17] 4.60027e-05
39 *78:21 *897:wbs_adr_i[18] 4.60027e-05
40 *78:21 *897:wbs_adr_i[19] 4.60027e-05
41 *78:21 *897:wbs_adr_i[20] 9.1227e-05
42 *78:21 *897:wbs_adr_i[21] 0.000106129
43 *78:21 *897:wbs_adr_i[22] 4.60027e-05
44 *78:21 *897:wbs_adr_i[23] 2.37336e-05
45 *78:21 *897:wbs_adr_i[25] 4.60027e-05
46 *78:21 *897:wbs_adr_i[26] 0.000459551
47 *78:21 *897:wbs_adr_i[27] 0.000467942
48 *78:21 *897:wbs_adr_i[3] 0.000377166
49 *78:21 *897:wbs_adr_i[4] 9.44899e-05
50 *78:21 *897:wbs_adr_i[5] 9.44899e-05
51 *78:21 *897:wbs_adr_i[6] 0.000264809
52 *78:21 *897:wbs_adr_i[7] 4.60027e-05
53 *78:21 *897:wbs_adr_i[8] 0.000369102
54 *78:21 *897:wbs_adr_i[9] 0.000332269
55 *78:21 *897:wbs_dat_i[10] 4.60027e-05
56 *78:21 *897:wbs_dat_i[11] 4.60027e-05
57 *78:21 *897:wbs_dat_i[12] 4.60027e-05
58 *78:21 *897:wbs_dat_i[13] 0.00256379
59 *78:21 *897:wbs_dat_i[14] 2.37336e-05
60 *78:21 *897:wbs_dat_i[15] 0.00157144
61 *78:21 *897:wbs_dat_i[16] 4.60027e-05
62 *78:21 *897:wbs_dat_i[17] 4.60027e-05
63 *78:21 *897:wbs_dat_i[18] 4.60027e-05
64 *78:21 *897:wbs_dat_i[19] 0.000151372
65 *78:21 *897:wbs_dat_i[20] 4.60027e-05
66 *78:21 *897:wbs_dat_i[21] 4.60027e-05
67 *78:21 *897:wbs_dat_i[22] 4.60027e-05
68 *78:21 *897:wbs_dat_i[23] 4.60027e-05
69 *78:21 *897:wbs_dat_i[24] 0.00175921
70 *78:21 *897:wbs_dat_i[25] 0.000463916
71 *78:21 *897:wbs_dat_i[26] 0.000385189
72 *78:21 *897:wbs_dat_i[27] 4.60027e-05
73 *78:21 *897:wbs_dat_i[3] 0.000682075
74 *78:21 *897:wbs_dat_i[4] 0.00084758
75 *78:21 *897:wbs_dat_i[5] 0.000928326
76 *78:21 *897:wbs_dat_i[6] 4.60027e-05
77 *78:21 *897:wbs_dat_i[7] 0.000332269
78 *78:21 *897:wbs_dat_i[8] 4.11979e-05
79 *78:21 *897:wbs_dat_i[9] 2.37336e-05
80 *78:21 *897:wbs_sel_i[3] 0.000938755
81 *78:21 *540:33 0.00244532
82 *78:21 *609:8 0.000336296
83 *78:21 *610:8 4.60027e-05
84 *78:21 *611:12 0.000989267
85 *78:21 *612:8 4.60027e-05
86 *78:21 *613:8 4.60027e-05
87 *78:21 *614:8 4.60027e-05
88 *78:21 *615:8 0.000249516
89 *78:21 *616:8 0.000463916
90 *78:21 *617:8 4.60027e-05
91 *78:21 *618:8 4.60027e-05
92 *78:21 *620:8 4.60027e-05
93 *78:21 *621:8 4.60027e-05
94 *78:21 *622:8 2.37336e-05
95 *78:21 *623:12 0.000992524
96 *78:21 *624:8 0.000542692
97 *78:21 *625:8 4.60027e-05
98 *78:21 *626:8 4.60027e-05
99 *78:21 *633:8 9.44899e-05
100 *78:21 *634:16 0.00104672
101 *78:21 *635:8 9.44899e-05
102 *78:21 *636:8 0.000200284
103 *78:21 *637:8 2.37336e-05
104 *78:21 *638:8 0.00147484
105 *78:21 *639:8 0.000369102
106 *78:21 *665:13 0.0161817
107 *78:21 *711:19 0.000129907
108 *78:21 *712:15 0.000414036
109 *78:21 *718:13 0.00250484
110 *78:21 *757:29 0
111 *78:29 *757:21 0
112 *78:29 *757:29 0.00107518
113 *78:29 *759:21 0
114 *78:29 *760:21 0
115 *47:39 *78:7 0.000117957
116 *48:27 *78:9 0.00286128
117 *48:33 *78:9 0.000408082
118 *48:35 *78:9 0.00166982
119 *49:19 *78:9 0.0109998
120 *73:15 *78:7 3.39597e-05
121 *77:15 *78:7 0
*RES
1 *897:io_oeb[12] *78:7 9.53067 
2 *78:7 *78:9 141.002 
3 *78:9 *78:19 49.4792 
4 *78:19 *78:21 159.811 
5 *78:21 *78:27 29.6596 
6 *78:27 *78:29 264.086 
7 *78:29 *78:31 15 
8 *78:31 io_oeb[19] 3000.86 
*END

*D_NET *80 0.543765
*CONN
*P io_oeb[20] O
*I *897:io_oeb[13] O *D soc_sys
*CAP
1 io_oeb[20] 0.000125279
2 *897:io_oeb[13] 0.0293265
3 *80:26 0.0131739
4 *80:24 0.0130487
5 *80:22 0.155057
6 *80:20 0.184384
7 *80:20 *897:wbs_we_i 0.000509871
8 *80:20 *81:12 0.00275774
9 *80:20 *84:20 0.00242004
10 *80:20 *85:16 0.00199225
11 *80:20 *131:23 0.000104046
12 *80:22 *604:15 0.00351949
13 *80:26 io_out[22] 0.00152813
14 *80:26 *82:21 0.00108983
15 *80:26 *116:27 0.0666831
16 *1:9 *80:22 0.0269463
17 *43:11 *80:26 0.0135961
18 *44:11 *80:26 0.000758536
19 *47:33 *80:20 5.3388e-05
20 *51:11 *80:20 0
21 *71:25 *80:22 0
22 *75:34 *80:26 0.0266155
23 *76:45 *80:20 7.61323e-05
*RES
1 *897:io_oeb[13] *80:20 28.5684 
2 *80:20 *80:22 557.039 
3 *80:22 *80:24 8 
4 *80:24 *80:26 123.146 
5 *80:26 io_oeb[20] 10.1854 
*END

*D_NET *81 0.408893
*CONN
*P io_oeb[21] O
*I *897:io_oeb[14] O *D soc_sys
*CAP
1 io_oeb[21] 0.0915577
2 *897:io_oeb[14] 0.0275386
3 *81:20 0.0915577
4 *81:18 0.0120749
5 *81:16 0.0120749
6 *81:14 0.0524534
7 *81:12 0.079992
8 *81:12 *84:20 0.000635118
9 *81:14 *636:10 0.00518898
10 *81:18 *768:18 0.031842
11 *1:9 *81:14 0
12 *24:13 *81:18 0
13 *47:33 *81:12 0.000334466
14 *75:28 *81:12 0.000885037
15 *80:20 *81:12 0.00275774
*RES
1 *897:io_oeb[14] *81:12 19.137 
2 *81:12 *81:14 182.967 
3 *81:14 *81:16 8 
4 *81:16 *81:18 60.6349 
5 *81:18 *81:20 8 
6 *81:20 io_oeb[21] 2116.45 
*END

*D_NET *82 0.392528
*CONN
*P io_oeb[22] O
*I *897:io_oeb[15] O *D soc_sys
*CAP
1 io_oeb[22] 0.00016749
2 *897:io_oeb[15] 0.000171245
3 *82:21 0.0137954
4 *82:19 0.0136279
5 *82:17 0.157185
6 *82:15 0.158164
7 *82:9 0.00260505
8 *82:7 0.00179707
9 *82:7 *83:9 0
10 *82:9 *91:11 0.000558704
11 *82:15 *85:20 0
12 *82:21 io_oeb[23] 0.000105782
13 *82:21 io_out[23] 0.00296986
14 *82:21 *116:27 0.00154165
15 *17:11 *82:17 0.00254127
16 *45:33 *82:9 0.00196197
17 *46:35 *82:9 0.00540961
18 *47:33 *82:15 0.00013423
19 *50:19 *82:9 0.00920809
20 *75:34 *82:21 0.016403
21 *76:57 *82:15 0.00238069
22 *77:21 *82:21 0.000710695
23 *80:26 *82:21 0.00108983
*RES
1 *897:io_oeb[15] *82:7 8.50027 
2 *82:7 *82:9 117.761 
3 *82:9 *82:15 20.4781 
4 *82:15 *82:17 543.458 
5 *82:17 *82:19 8 
6 *82:19 *82:21 61.236 
7 *82:21 io_oeb[22] 10.8896 
*END

*D_NET *83 0.359311
*CONN
*P io_oeb[23] O
*I *897:io_oeb[16] O *D soc_sys
*CAP
1 io_oeb[23] 0.00204981
2 *897:io_oeb[16] 0.000961801
3 *83:19 0.115477
4 *83:17 0.113736
5 *83:11 0.000994791
6 *83:9 0.00164809
7 *83:11 *123:9 0.00353119
8 *83:17 io_oeb[34] 0.00040026
9 *83:17 io_oeb[35] 4.76443e-05
10 *46:19 *83:19 0
11 *46:27 *83:19 0.0256573
12 *46:35 *83:19 0
13 *47:19 *83:19 0
14 *48:33 *83:11 0.000773957
15 *48:35 *83:11 0.0014247
16 *49:19 *83:19 0
17 *50:19 *83:19 0
18 *53:23 *83:19 0.0853874
19 *57:11 *83:11 0.000302506
20 *57:17 *83:9 0.000106151
21 *58:15 *83:9 1.10975e-05
22 *73:17 *83:19 0.00669571
23 *82:7 *83:9 0
24 *82:21 io_oeb[23] 0.000105782
*RES
1 *897:io_oeb[16] *83:9 10.3109 
2 *83:9 *83:11 45.2193 
3 *83:11 *83:17 16.8288 
4 *83:17 *83:19 3078.58 
5 *83:19 io_oeb[23] 27.43 
*END

*D_NET *84 0.407655
*CONN
*P io_oeb[24] O
*I *897:io_oeb[17] O *D soc_sys
*CAP
1 io_oeb[24] 0.0001396
2 *897:io_oeb[17] 0.0104091
3 *84:34 0.0167961
4 *84:32 0.0170853
5 *84:26 0.051879
6 *84:24 0.0529563
7 *84:20 0.0119154
8 *84:20 *897:wb_clk_i 0.000586189
9 *84:20 *85:16 0.00353244
10 *84:20 *85:20 0.00405222
11 *84:20 *541:57 0.00190242
12 *84:20 *644:19 0.000947029
13 *84:20 *645:13 0.000657816
14 *84:24 *85:20 0.000331485
15 *84:26 *85:22 0.0693346
16 *84:26 *93:27 0.00328755
17 *84:26 *122:17 0
18 *84:26 *130:17 0.00360186
19 *84:26 *132:17 0.00580582
20 *84:34 *85:30 0.00323539
21 *84:34 *122:25 0.0303709
22 *84:34 *124:17 0.00465302
23 *47:19 *84:26 0.0920803
24 *47:33 *84:20 0.000104163
25 *48:11 *84:26 0.00265914
26 *48:19 *84:26 0.00260339
27 *49:17 *84:26 0.00158304
28 *50:11 *84:26 0.00654111
29 *53:21 *84:26 0.00218963
30 *54:11 *84:26 0.000834137
31 *78:19 *84:24 0.00252512
32 *80:20 *84:20 0.00242004
33 *81:12 *84:20 0.000635118
*RES
1 *897:io_oeb[17] *84:20 48.4978 
2 *84:20 *84:24 13.4227 
3 *84:24 *84:26 2236.25 
4 *84:26 *84:32 17.0435 
5 *84:32 *84:34 96.2715 
6 *84:34 io_oeb[24] 8.53573 
*END

*D_NET *85 0.51005
*CONN
*P io_oeb[25] O
*I *897:io_oeb[18] O *D soc_sys
*CAP
1 io_oeb[25] 0.000147901
2 *897:io_oeb[18] 0.00820871
3 *85:30 0.0298369
4 *85:28 0.0299331
5 *85:22 0.0104554
6 *85:20 0.0135634
7 *85:16 0.0115609
8 *85:16 *897:wbs_we_i 4.53187e-05
9 *85:16 *88:6 0.000402756
10 *85:16 *121:23 0.00019666
11 *85:16 *131:23 0.000807415
12 *85:20 *89:25 0.00108918
13 *85:20 *123:15 0.000129895
14 *85:20 *541:57 8.64408e-05
15 *85:20 *542:22 0.00135185
16 *85:22 *93:27 0.00188578
17 *85:22 *122:17 0
18 *85:22 *124:9 0.0482599
19 *85:22 *130:17 0.00314492
20 *85:22 *132:17 0.00665659
21 *85:28 io_oeb[31] 2.66772e-05
22 *85:30 *122:17 0.00320525
23 *85:30 *122:25 0.00980354
24 *85:30 *124:17 0.10807
25 *85:30 *130:17 0.00261766
26 *47:11 *85:30 0.00554267
27 *47:19 *85:22 8.30196e-05
28 *47:33 *85:16 0.0008786
29 *47:33 *85:20 2.05577e-05
30 *48:11 *85:30 0.108594
31 *48:19 *85:22 0.0203642
32 *51:23 *85:16 0.00060274
33 *76:57 *85:20 0
34 *80:20 *85:16 0.00199225
35 *82:15 *85:20 0
36 *84:20 *85:16 0.00353244
37 *84:20 *85:20 0.00405222
38 *84:24 *85:20 0.000331485
39 *84:26 *85:22 0.0693346
40 *84:34 *85:30 0.00323539
*RES
1 *897:io_oeb[18] *85:16 39.3027 
2 *85:16 *85:20 21.58 
3 *85:20 *85:22 884.024 
4 *85:22 *85:28 16.6141 
5 *85:28 *85:30 292.383 
6 *85:30 io_oeb[25] 8.38267 
*END

*D_NET *86 0.32945
*CONN
*P io_oeb[26] O
*I *897:io_oeb[19] O *D soc_sys
*CAP
1 io_oeb[26] 0.000137992
2 *897:io_oeb[19] 0.00058502
3 *86:25 0.056731
4 *86:23 0.0568737
5 *86:17 0.010699
6 *86:15 0.0108502
7 *86:9 0.00129152
8 *86:7 0.00144465
9 *86:7 *121:23 3.62034e-05
10 *86:9 *98:13 0.00221854
11 *86:15 *93:17 1.73993e-05
12 *86:15 *94:15 4.39833e-05
13 *86:15 *98:13 6.47885e-05
14 *86:15 *132:15 3.58485e-05
15 *86:17 *92:9 0.00582198
16 *86:17 *94:17 0.00560292
17 *86:17 *122:17 0
18 *86:17 *124:9 0.00320541
19 *86:17 *127:9 0.00460666
20 *86:17 *130:9 0.0314967
21 *86:17 *130:17 0.00121749
22 *86:23 io_out[33] 0
23 *86:25 *92:17 0.00814049
24 *86:25 *124:17 0.123908
25 *49:19 *86:9 0.000690043
26 *73:17 *86:9 0.00362943
27 *76:51 *86:15 0.000100948
*RES
1 *897:io_oeb[19] *86:7 9.27307 
2 *86:7 *86:9 47.3321 
3 *86:9 *86:15 17.0864 
4 *86:15 *86:17 478.355 
5 *86:17 *86:23 16.7 
6 *86:23 *86:25 327.29 
7 *86:25 io_oeb[26] 8.4088 
*END

*D_NET *87 0.329059
*CONN
*P io_oeb[27] O
*I *897:io_oeb[20] O *D soc_sys
*CAP
1 io_oeb[27] 0.00709287
2 *897:io_oeb[20] 0.0013427
3 *87:33 0.0295838
4 *87:31 0.022589
5 *87:25 0.0320353
6 *87:23 0.0331885
7 *87:17 0.00221935
8 *87:15 0.00231077
9 io_oeb[27] *124:17 0.000325813
10 *87:15 *92:7 0
11 *87:15 *98:13 0.000236279
12 *87:15 *121:23 0.000536942
13 *87:17 *89:19 0.00449986
14 *87:17 *122:17 0.00632298
15 *87:17 *131:9 0.000953854
16 *87:17 *132:9 0.000323423
17 *87:17 *133:29 0.00110924
18 *87:25 *127:17 0.0188849
19 *87:33 *88:6 0.0406825
20 *87:33 *123:17 0
21 *87:33 *127:17 0.0252644
22 *45:21 *87:25 0
23 *45:31 *87:25 0.000175586
24 *46:35 *87:25 0.0922248
25 *46:35 *87:33 0.00384669
26 *47:19 io_oeb[27] 0.00106321
27 *48:11 io_oeb[27] 0
28 *48:35 *87:15 0.00100507
29 *49:17 io_oeb[27] 0
30 *51:23 *87:15 0
31 *57:11 *87:15 0.00010083
32 *76:57 *87:23 0.000137526
33 *78:9 *87:15 0.00100244
*RES
1 *897:io_oeb[20] *87:15 39.6109 
2 *87:15 *87:17 80.4336 
3 *87:17 *87:23 18.4603 
4 *87:23 *87:25 1171.37 
5 *87:25 *87:31 16.1848 
6 *87:31 *87:33 128.893 
7 *87:33 io_oeb[27] 43.0195 
*END

*D_NET *88 0.327268
*CONN
*P io_oeb[28] O
*I *897:io_oeb[21] O *D soc_sys
*CAP
1 io_oeb[28] 0.00139408
2 *897:io_oeb[21] 0
3 *88:6 0.039165
4 *88:4 0.037771
5 io_oeb[28] *124:17 0.000325813
6 *88:6 *89:15 0.000325813
7 *88:6 *89:27 0.108989
8 *88:6 *91:11 0.0949138
9 *88:6 *93:17 0.000325813
10 *88:6 *123:17 0
11 *88:6 *127:17 0.000259116
12 *88:6 *131:23 3.57972e-05
13 *45:21 *88:6 0.00242524
14 *47:33 *88:6 0
15 *76:45 *88:6 0.000252572
16 *85:16 *88:6 0.000402756
17 *87:33 *88:6 0.0406825
*RES
1 *897:io_oeb[21] *88:4 8 
2 *88:4 *88:6 322.974 
3 *88:6 io_oeb[28] 11.3395 
*END

*D_NET *89 0.247214
*CONN
*P io_oeb[29] O
*I *897:io_oeb[22] O *D soc_sys
*CAP
1 io_oeb[29] 0.00135315
2 *897:io_oeb[22] 0.00222144
3 *89:27 0.0451781
4 *89:25 0.044807
5 *89:19 0.00269461
6 *89:17 0.0017126
7 *89:15 0.00222144
8 *89:15 io_oeb[35] 0.000311116
9 *89:15 *91:9 4.93791e-05
10 *89:15 *93:17 0.00106732
11 *89:15 *97:13 0.000271995
12 *89:19 *122:17 0.000378298
13 *89:19 *132:9 0.000385919
14 *89:25 *123:15 0.000131391
15 *89:25 *127:15 0.000991983
16 *89:27 *123:17 0.012266
17 *45:21 *89:27 0.015744
18 *46:43 *89:15 0.000524899
19 *85:20 *89:25 0.00108918
20 *87:17 *89:19 0.00449986
21 *88:6 *89:15 0.000325813
22 *88:6 *89:27 0.108989
*RES
1 *897:io_oeb[22] *89:15 44.2334 
2 *89:15 *89:17 8 
3 *89:17 *89:19 66.3479 
4 *89:19 *89:25 19.0184 
5 *89:25 *89:27 257.35 
6 *89:27 io_oeb[29] 11.1304 
*END

*D_NET *91 0.237674
*CONN
*P io_oeb[30] O
*I *897:io_oeb[23] O *D soc_sys
*CAP
1 io_oeb[30] 0.0013345
2 *897:io_oeb[23] 0.000161912
3 *91:11 0.0257972
4 *91:9 0.0246246
5 *91:11 *127:17 0.0881254
6 *45:31 *91:11 0.000624985
7 *45:33 *91:11 0.000302076
8 *46:35 *91:11 0.00061512
9 *46:43 *91:11 0.000108674
10 *50:19 *91:11 0.000457952
11 *82:9 *91:11 0.000558704
12 *88:6 *91:11 0.0949138
13 *89:15 *91:9 4.93791e-05
*RES
1 *897:io_oeb[23] *91:9 8.38267 
2 *91:9 *91:11 224.474 
3 *91:11 io_oeb[30] 11.1528 
*END

*D_NET *92 0.161857
*CONN
*P io_oeb[31] O
*I *897:io_oeb[24] O *D soc_sys
*CAP
1 io_oeb[31] 0.000321242
2 *897:io_oeb[24] 0.00123881
3 *92:17 0.0198403
4 *92:15 0.0196213
5 *92:9 0.00324679
6 *92:7 0.00438327
7 io_oeb[31] *124:17 0.000325813
8 *92:7 *98:13 4.59464e-05
9 *92:9 *93:19 0.0111976
10 *92:9 *94:17 0.000585529
11 *92:9 *122:17 0.00347344
12 *92:9 *127:9 0.00665024
13 *92:9 *133:29 0.00250061
14 *92:17 io_oeb[33] 0.000203612
15 *92:17 *94:17 0.0154561
16 *92:17 *122:17 0.0153178
17 *92:17 *124:17 0.0206628
18 *92:17 *130:17 0.0225017
19 *92:17 *133:29 8.04307e-05
20 *20:17 *92:17 0.000203612
21 *53:29 *92:7 1.07187e-05
22 *85:28 io_oeb[31] 2.66772e-05
23 *86:17 *92:9 0.00582198
24 *86:25 *92:17 0.00814049
25 *87:15 *92:7 0
*RES
1 *897:io_oeb[24] *92:7 10.4752 
2 *92:7 *92:9 226.221 
3 *92:9 *92:15 16.1848 
4 *92:15 *92:17 133.971 
5 *92:17 io_oeb[31] 8.76347 
*END

*D_NET *93 0.132798
*CONN
*P io_oeb[32] O
*I *897:io_oeb[25] O *D soc_sys
*CAP
1 io_oeb[32] 0.000495904
2 *897:io_oeb[25] 0.00156449
3 *93:27 0.0120291
4 *93:25 0.0119174
5 *93:19 0.00202737
6 *93:17 0.00320773
7 io_oeb[32] *124:15 0.000354738
8 io_oeb[32] *124:17 0.000325813
9 *93:17 *94:15 0.000105902
10 *93:17 *97:13 0.000447033
11 *93:17 *131:23 8.54984e-05
12 *93:17 *132:15 0
13 *93:19 *122:17 0.0112027
14 *93:19 *133:29 0.00217411
15 *93:25 io_oeb[34] 4.04888e-05
16 *93:27 *130:17 0.00839142
17 *93:27 *132:17 0.025401
18 *45:33 *93:17 0.00047008
19 *46:43 *93:17 0.000278014
20 *47:19 *93:27 0.00761821
21 *55:11 *93:27 0.0164814
22 *57:11 *93:27 0.0101808
23 *76:51 *93:17 0.000217645
24 *84:26 *93:27 0.00328755
25 *85:22 *93:27 0.00188578
26 *86:15 *93:17 1.73993e-05
27 *88:6 *93:17 0.000325813
28 *89:15 *93:17 0.00106732
29 *92:9 *93:19 0.0111976
*RES
1 *897:io_oeb[25] *93:17 42.8201 
2 *93:17 *93:19 142.411 
3 *93:19 *93:25 16.7 
4 *93:25 *93:27 96.3984 
5 *93:27 io_oeb[32] 9.4504 
*END

*D_NET *94 0.0820692
*CONN
*P io_oeb[33] O
*I *897:io_oeb[26] O *D soc_sys
*CAP
1 io_oeb[33] 0.000385264
2 *897:io_oeb[26] 0.00120055
3 *94:17 0.00869119
4 *94:15 0.00950648
5 *94:15 io_oeb[34] 0
6 *94:15 *123:9 0.00120732
7 *94:15 *124:9 0.00121433
8 *94:15 *131:23 0.000987472
9 *94:17 io_oeb[34] 0.0105313
10 *94:17 *127:9 0.00090201
11 *94:17 *130:17 0.000242593
12 *94:17 *132:17 0.0109956
13 *94:17 *133:29 0.0141713
14 *46:41 *94:15 3.56565e-05
15 *86:15 *94:15 4.39833e-05
16 *86:17 *94:17 0.00560292
17 *92:9 *94:17 0.000585529
18 *92:17 io_oeb[33] 0.000203612
19 *92:17 *94:17 0.0154561
20 *93:17 *94:15 0.000105902
*RES
1 *897:io_oeb[26] *94:15 42.1276 
2 *94:15 *94:17 73.0427 
3 *94:17 io_oeb[33] 8.9352 
*END

*D_NET *95 0.0351207
*CONN
*P io_oeb[34] O
*I *897:io_oeb[27] O *D soc_sys
*CAP
1 io_oeb[34] 0.00456773
2 *897:io_oeb[27] 0.00456773
3 io_oeb[34] io_oeb[35] 0.000354211
4 io_oeb[34] *97:13 0.000674487
5 io_oeb[34] *124:9 0.00110248
6 io_oeb[34] *130:9 0.00216254
7 io_oeb[34] *131:23 0
8 io_oeb[34] *132:17 0.010199
9 io_oeb[34] *133:29 0.000291474
10 *46:41 io_oeb[34] 3.56565e-05
11 *57:11 io_oeb[34] 0.000193346
12 *83:17 io_oeb[34] 0.00040026
13 *93:25 io_oeb[34] 4.04888e-05
14 *94:15 io_oeb[34] 0
15 *94:17 io_oeb[34] 0.0105313
*RES
1 *897:io_oeb[27] io_oeb[34] 46.0795 
*END

*D_NET *96 0.0234896
*CONN
*P io_oeb[35] O
*I *897:io_oeb[28] O *D soc_sys
*CAP
1 io_oeb[35] 0.00452347
2 *897:io_oeb[28] 0.00452347
3 io_oeb[35] io_out[35] 0.00271958
4 io_oeb[35] *97:13 0.00486
5 io_oeb[35] *121:9 0.000948286
6 io_oeb[35] *122:15 0
7 io_oeb[35] *131:9 0.000127411
8 io_oeb[35] *133:29 0.00487602
9 io_oeb[35] *136:7 9.28029e-05
10 io_oeb[34] io_oeb[35] 0.000354211
11 *51:25 io_oeb[35] 0.000105613
12 *83:17 io_oeb[35] 4.76443e-05
13 *89:15 io_oeb[35] 0.000311116
*RES
1 *897:io_oeb[28] io_oeb[35] 41.3829 
*END

*D_NET *97 0.0635755
*CONN
*P io_oeb[36] O
*I *897:io_oeb[29] O *D soc_sys
*CAP
1 io_oeb[36] 0.000276183
2 *897:io_oeb[29] 0.00518607
3 *97:21 0.0105007
4 *97:13 0.0154106
5 *97:13 io_out[35] 7.48824e-05
6 *97:13 io_out[36] 0.000557932
7 *97:13 *98:17 0.0015149
8 *97:13 *123:9 0.00122625
9 *97:13 *124:9 0.0015149
10 *97:13 *127:9 0.000640521
11 *97:13 *130:9 0.00142184
12 *97:13 *132:7 0
13 *97:21 *103:15 0.000615097
14 *97:21 *108:9 0.000601023
15 *97:21 *112:17 0.000519805
16 *97:21 *143:19 0.000619849
17 io_oeb[34] *97:13 0.000674487
18 io_oeb[35] *97:13 0.00486
19 *897:io_in[17] *97:21 0.000242014
20 *897:io_in[28] *97:13 0.00355425
21 *897:io_in[28] *97:21 0.00970072
22 *897:io_in[30] *97:21 9.48743e-05
23 *45:49 *97:21 0.000682264
24 *57:11 *97:13 0.00236146
25 *76:51 *97:13 5.87077e-06
26 *89:15 *97:13 0.000271995
27 *93:17 *97:13 0.000447033
*RES
1 *897:io_oeb[29] *97:13 43.4232 
2 *97:13 *97:21 43.8885 
3 *97:21 io_oeb[36] 8.5544 
*END

*D_NET *98 0.0843415
*CONN
*P io_oeb[37] O
*I *897:io_oeb[30] O *D soc_sys
*CAP
1 io_oeb[37] 7.11757e-05
2 *897:io_oeb[30] 0.00133747
3 *98:27 0.0094581
4 *98:25 0.00990967
5 *98:17 0.00399712
6 *98:15 0.00347438
7 *98:13 0.00133747
8 *98:17 *108:9 0.000981629
9 *98:17 *109:9 0.00271735
10 *98:17 *112:17 0.000503829
11 *98:17 *123:9 0.0119711
12 *98:17 *124:9 0.0116478
13 *98:25 io_out[36] 0
14 *98:27 io_out[37] 0.0150694
15 *897:io_in[28] *98:17 0.00104473
16 *45:49 *98:17 0.000302277
17 *48:43 *98:17 0.00161939
18 *49:19 *98:13 0.00222072
19 *51:23 *98:13 0
20 *74:23 *98:17 0.00194678
21 *76:51 *98:13 0.000650653
22 *86:9 *98:13 0.00221854
23 *86:15 *98:13 6.47885e-05
24 *87:15 *98:13 0.000236279
25 *92:7 *98:13 4.59464e-05
26 *97:13 *98:17 0.0015149
*RES
1 *897:io_oeb[30] *98:13 47.1226 
2 *98:13 *98:15 8 
3 *98:15 *98:17 242.419 
4 *98:17 *98:25 17.1405 
5 *98:25 *98:27 47.7829 
6 *98:27 io_oeb[37] 8.28187 
*END

*D_NET *103 0.753332
*CONN
*P io_oeb[7] O
*I *897:io_oeb[0] O *D soc_sys
*CAP
1 io_oeb[7] 0.0947567
2 *897:io_oeb[0] 0.000868403
3 *103:41 0.0947567
4 *103:39 0.10562
5 *103:37 0.10562
6 *103:35 0.0239462
7 *103:33 0.0239462
8 *103:31 0.00113239
9 *103:29 0.00197096
10 *103:23 0.00565361
11 *103:21 0.00544325
12 *103:15 0.00231732
13 *103:13 0.00255752
14 *103:13 *133:15 0.000180375
15 *103:13 *136:7 3.82527e-05
16 *103:15 *123:9 0
17 *103:15 *133:17 1.33927e-05
18 *103:21 *113:7 0
19 *103:23 *110:9 0.00217228
20 *103:29 *118:17 0
21 *103:35 *108:13 0.000341505
22 *103:39 *716:9 0.00139163
23 *103:39 *717:9 0.00180402
24 *103:39 *727:9 0.00119558
25 *103:39 *743:9 0.00193121
26 *103:39 *748:9 0.00108593
27 *103:39 *749:9 0.00784065
28 *103:39 *754:9 0.00139163
29 *103:39 *761:13 0
30 *103:39 *771:9 0
31 *103:39 *775:9 0
32 *103:39 *819:9 0.00156092
33 *31:23 *103:31 0.00504672
34 *37:21 *103:31 0.00249705
35 *42:17 *103:35 0.121712
36 *45:49 *103:15 0.00263515
37 *46:51 *103:23 0.00666411
38 *48:35 *103:15 6.44037e-05
39 *49:19 *103:15 0.00344964
40 *74:23 *103:15 0.00046521
41 *74:43 *103:35 0.120488
42 *74:77 *103:39 0.000157826
43 *97:21 *103:15 0.000615097
*RES
1 *897:io_oeb[0] *103:13 10.1653 
2 *103:13 *103:15 86.0679 
3 *103:15 *103:21 17.344 
4 *103:21 *103:23 164.244 
5 *103:23 *103:29 17.7733 
6 *103:29 *103:31 64.9393 
7 *103:31 *103:33 8 
8 *103:33 *103:35 226.701 
9 *103:35 *103:37 8 
10 *103:37 *103:39 280.579 
11 *103:39 *103:41 8 
12 *103:41 io_oeb[7] 316.189 
*END

*D_NET *104 0.783527
*CONN
*P io_oeb[8] O
*I *897:io_oeb[1] O *D soc_sys
*CAP
1 io_oeb[8] 0.0930812
2 *897:io_oeb[1] 0.00704722
3 *104:28 0.0930812
4 *104:26 0.0481105
5 *104:24 0.0481105
6 *104:22 0.0245439
7 *104:20 0.0245439
8 *104:18 0.00596787
9 *104:16 0.0130151
10 *104:16 *105:23 0.000260962
11 *104:16 *115:12 4.60972e-05
12 *104:16 *118:9 0.000203612
13 *104:16 *118:11 0.000625226
14 *104:16 *119:12 0.000110069
15 *104:16 *120:12 0.000792422
16 *104:16 *125:24 0.000177896
17 *104:16 *126:12 4.60972e-05
18 *104:16 *129:27 0.000101477
19 *104:16 *142:12 0.000217436
20 *104:16 *143:17 0.000126812
21 *104:18 *118:11 0.00480538
22 *104:18 *141:9 0.000966661
23 *104:18 *142:12 0.000188171
24 *104:22 *897:adc_data[4] 0.00482783
25 *104:22 *107:21 0.000202382
26 *104:22 *112:33 0.00629859
27 *104:22 *118:41 0.00174985
28 *104:22 *540:50 0.0877717
29 *104:22 *542:34 0.00193315
30 *104:22 *644:17 0.00091044
31 *104:22 *649:25 0.0115786
32 *104:26 *897:sram_dat_i[27] 0.000384832
33 *104:26 *112:37 0.143502
34 *104:26 *118:71 2.11066e-05
35 *104:26 *652:29 0.000102386
36 *104:26 *676:9 0.00010542
37 *104:26 *712:9 0
38 *104:26 *752:9 0
39 *104:26 *789:9 0.0212196
40 *104:26 *874:11 0.000167942
41 *104:26 *878:11 7.36284e-05
42 *104:26 *880:11 0.000703714
43 *897:io_in[1] *104:18 0.000956636
44 *40:25 *104:22 0.00545414
45 *40:35 *104:22 0.00381452
46 *40:37 *104:18 0
47 *67:233 *104:26 0.00229031
48 *67:261 *104:22 0.11989
49 *67:265 *104:18 0.00272539
50 *74:21 *104:16 0.000673012
*RES
1 *897:io_oeb[1] *104:16 48.556 
2 *104:16 *104:18 193.824 
3 *104:18 *104:20 8 
4 *104:20 *104:22 224.254 
5 *104:22 *104:24 8 
6 *104:24 *104:26 1838.33 
7 *104:26 *104:28 8 
8 *104:28 io_oeb[8] 317.262 
*END

*D_NET *105 1.03992
*CONN
*P io_oeb[9] O
*I *897:io_oeb[2] O *D soc_sys
*CAP
1 io_oeb[9] 0.00115767
2 *897:io_oeb[2] 0.0141546
3 *105:33 0.0556459
4 *105:31 0.0544882
5 *105:29 0.0461558
6 *105:27 0.0557097
7 *105:23 0.0237084
8 *105:23 *129:27 0.00251133
9 *105:27 *565:15 0.00735848
10 *105:29 *111:27 0.275008
11 *105:29 *754:13 0.00244066
12 *105:33 *107:25 0.0142096
13 *105:33 *109:25 0.0255809
14 *105:33 *111:31 0.0222161
15 *105:33 *143:51 0.0135775
16 *31:9 *105:33 0.11961
17 *32:9 *105:33 0.0173358
18 *33:9 *105:33 0.0190863
19 *70:12 *105:23 0.00329659
20 *70:18 *105:29 0.265991
21 *74:21 *105:23 2.8667e-05
22 *76:45 *105:23 0.000389294
23 *104:16 *105:23 0.000260962
*RES
1 *897:io_oeb[2] *105:23 19.4364 
2 *105:23 *105:27 47.0245 
3 *105:27 *105:29 507.356 
4 *105:29 *105:31 8 
5 *105:31 *105:33 282.356 
6 *105:33 io_oeb[9] 10.9475 
*END

*D_NET *107 0.997927
*CONN
*P io_out[10] O
*I *897:io_out[3] O *D soc_sys
*CAP
1 io_out[10] 0.000962708
2 *897:io_out[3] 0.000591606
3 *107:25 0.0313811
4 *107:23 0.0304184
5 *107:21 0.0885563
6 *107:19 0.0885563
7 *107:17 0.00097544
8 *107:15 0.0012235
9 *107:9 0.00256198
10 *107:7 0.00290552
11 *107:7 *108:7 0
12 *107:7 *143:17 0
13 *107:9 *114:9 0.00392531
14 *107:15 *114:15 0.000365108
15 *107:17 *108:9 0.00642867
16 *107:17 *112:21 0.00648672
17 *107:21 *897:adc_data[4] 0.00298536
18 *107:21 *898:wbs_adr_i[10] 0
19 *107:21 *898:wbs_adr_i[20] 9.75158e-06
20 *107:21 *898:wbs_adr_i[28] 0.000458676
21 *107:21 *898:wbs_adr_i[31] 2.26654e-05
22 *107:21 *898:wbs_dat_i[11] 0
23 *107:21 *898:wbs_dat_i[22] 0.00157152
24 *107:21 *898:wbs_dat_i[24] 2.26654e-05
25 *107:21 *898:wbs_dat_i[7] 0.00198687
26 *107:21 *898:wbs_sel_i[0] 0.0146335
27 *107:21 *108:13 0.291996
28 *107:21 *112:31 0
29 *107:21 *118:41 0.000617582
30 *107:21 *540:50 0.00081064
31 *107:21 *810:25 0
32 *107:21 *816:17 0.000645744
33 *107:21 *839:12 0
34 *107:21 *841:29 0.000711197
35 *107:21 *843:14 0.000446753
36 *107:21 *845:27 0.000758786
37 *107:21 *846:8 2.26654e-05
38 *107:25 *143:51 0.160847
39 *897:io_in[0] *107:17 0.000623784
40 *897:io_in[19] *107:9 0.00126276
41 *31:9 *107:25 0.00552312
42 *32:9 *107:25 0.182537
43 *37:21 *107:9 0.00109973
44 *38:21 *107:9 0.000160509
45 *40:35 *107:21 5.76277e-05
46 *44:29 *107:17 2.57016e-05
47 *47:41 *107:9 0.00523938
48 *67:261 *107:21 0.0421826
49 *74:31 *107:9 0.00090626
50 *74:43 *107:21 1.05243e-05
51 *104:22 *107:21 0.000202382
52 *105:33 *107:25 0.0142096
*RES
1 *897:io_out[3] *107:7 9.27307 
2 *107:7 *107:9 119.874 
3 *107:9 *107:15 16.7429 
4 *107:15 *107:17 82.5464 
5 *107:17 *107:19 8 
6 *107:19 *107:21 541.102 
7 *107:21 *107:23 8 
8 *107:23 *107:25 2317.25 
9 *107:25 io_out[10] 10.5611 
*END

*D_NET *108 1.00759
*CONN
*P io_out[11] O
*I *897:io_out[4] O *D soc_sys
*CAP
1 io_out[11] 8.42195e-05
2 *897:io_out[4] 0.00087941
3 *108:17 0.0395495
4 *108:15 0.0394653
5 *108:13 0.0937613
6 *108:11 0.0937613
7 *108:9 0.00260547
8 *108:7 0.00348488
9 *108:7 *109:7 0
10 *108:7 *111:21 1.90292e-05
11 *108:9 *112:17 0.00556292
12 *108:9 *112:21 0.0011896
13 *108:9 *143:19 0.000170387
14 *108:17 *142:30 0.139111
15 *897:io_in[0] *108:9 0.000726071
16 *897:io_in[28] *108:9 0.000335358
17 *26:9 *108:17 0.0339838
18 *42:17 *108:13 0.000746924
19 *44:29 *108:9 0.00952189
20 *45:49 *108:9 0.00630096
21 *66:9 *108:17 0.0191047
22 *70:22 *108:17 0.0116979
23 *72:17 *108:17 0.162428
24 *73:25 *108:17 0.000305935
25 *74:43 *108:13 0.0424428
26 *97:21 *108:9 0.000601023
27 *98:17 *108:9 0.000981629
28 *103:35 *108:13 0.000341505
29 *107:7 *108:7 0
30 *107:17 *108:9 0.00642867
31 *107:21 *108:13 0.291996
*RES
1 *897:io_out[4] *108:7 9.87413 
2 *108:7 *108:9 205.796 
3 *108:9 *108:11 8 
4 *108:11 *108:13 543.42 
5 *108:13 *108:15 8 
6 *108:15 *108:17 2591.21 
7 *108:17 io_out[11] 8.1568 
*END

*D_NET *109 1.04016
*CONN
*P io_out[12] O
*I *897:io_out[5] O *D soc_sys
*CAP
1 io_out[12] 0.00099252
2 *897:io_out[5] 0.000996762
3 *109:25 0.0345477
4 *109:23 0.0335552
5 *109:21 0.0886114
6 *109:19 0.0900015
7 *109:9 0.00502494
8 *109:7 0.00463164
9 *109:7 *110:7 0
10 *109:7 *111:21 1.90292e-05
11 *109:9 io_out[36] 0.000352944
12 *109:9 *112:17 0.00261886
13 *109:9 *112:21 0.00911079
14 *109:9 *113:9 0
15 *109:9 *118:19 0.00627232
16 *109:19 *112:31 0.000401402
17 *109:19 *114:27 0.00104941
18 *109:19 *118:41 0.000484015
19 *109:19 *540:19 0.00019458
20 *109:19 *542:34 0.00269898
21 *109:21 *898:wbs_dat_i[26] 0.000283278
22 *109:21 *898:wbs_stb_i 0.00200105
23 *109:21 *112:33 0
24 *109:21 *114:29 0.191345
25 *109:21 *540:58 0.0123366
26 *109:21 *541:27 0.00382263
27 *109:21 *644:17 0.000227208
28 *109:21 *646:22 0
29 *109:21 *646:30 0.00416424
30 *109:21 *647:33 0.00128817
31 *109:21 *649:17 0.000823858
32 *109:21 *649:25 0.000320069
33 *109:21 *650:37 0.0345097
34 *109:21 *651:33 0.000643805
35 *109:21 *656:29 0.00783656
36 *109:21 *812:17 0.0022661
37 *109:21 *834:11 0.000140203
38 *109:21 *841:13 0.00259658
39 *109:25 *111:31 0.183031
40 *897:io_in[0] *109:9 0.000395262
41 *897:io_in[30] *109:9 0.00071593
42 *31:9 *109:25 0.00084038
43 *33:9 *109:25 0.0226735
44 *34:9 *109:25 0.226327
45 *39:41 *109:9 0.00125901
46 *40:25 *109:21 0
47 *43:25 *109:21 0.0272758
48 *43:33 *109:21 0.00057123
49 *43:37 *109:9 0.000343297
50 *44:29 *109:9 0
51 *48:43 *109:9 0.00226237
52 *98:17 *109:9 0.00271735
53 *105:33 *109:25 0.0255809
54 *108:7 *109:7 0
*RES
1 *897:io_out[5] *109:7 10.1317 
2 *109:7 *109:9 216.361 
3 *109:9 *109:19 38.1605 
4 *109:19 *109:21 2963.53 
5 *109:21 *109:23 15 
6 *109:23 *109:25 2873.1 
7 *109:25 io_out[12] 10.9045 
*END

*D_NET *110 0.732116
*CONN
*P io_out[13] O
*I *897:io_out[6] O *D soc_sys
*CAP
1 io_out[13] 0.00179464
2 *897:io_out[6] 0.0012205
3 *110:25 0.138573
4 *110:23 0.136778
5 *110:21 0.0727616
6 *110:19 0.0731531
7 *110:13 0.0389152
8 *110:11 0.0385238
9 *110:9 0.00454043
10 *110:7 0.00576093
11 *110:9 io_out[37] 0.00177405
12 *110:9 *113:9 0.00427669
13 *110:9 *114:17 0.007047
14 *110:9 *136:9 0.00255365
15 *110:13 *851:9 0.000290086
16 *110:13 *852:9 0.00160965
17 *110:19 *890:9 0
18 *110:21 *825:9 0
19 *110:21 *826:9 0
20 *110:21 *828:9 0
21 *110:21 *840:9 0.0326759
22 *110:21 *860:13 0.000227312
23 *110:21 *864:25 0
24 *32:21 *110:13 0.12269
25 *38:17 *110:13 0.000182774
26 *39:27 *110:21 0.000100742
27 *39:29 *110:21 0
28 *39:37 *110:13 0.0349363
29 *39:41 *110:9 0
30 *46:51 *110:9 0.000143752
31 *51:25 *110:9 0.00498464
32 *56:29 *110:9 0.000352944
33 *74:29 *110:7 2.18159e-05
34 *74:39 *110:9 0.00405529
35 *103:23 *110:9 0.00217228
36 *109:7 *110:7 0
*RES
1 *897:io_out[6] *110:7 10.6469 
2 *110:7 *110:9 245.941 
3 *110:9 *110:11 8 
4 *110:11 *110:13 236.705 
5 *110:13 *110:19 29.6596 
6 *110:19 *110:21 1675.74 
7 *110:21 *110:23 15 
8 *110:23 *110:25 3167.14 
9 *110:25 io_out[13] 13.6523 
*END

*D_NET *111 1.04409
*CONN
*P io_out[14] O
*I *897:io_out[7] O *D soc_sys
*CAP
1 io_out[14] 0.00089173
2 *897:io_out[7] 0.0114435
3 *111:31 0.0458088
4 *111:29 0.044917
5 *111:27 0.0988835
6 *111:25 0.0988835
7 *111:23 0.014657
8 *111:21 0.0261005
9 *111:21 *112:9 0.00082819
10 *111:23 *587:15 0
11 *111:23 *640:19 0.0121231
12 *111:27 *653:14 0
13 *111:27 *700:15 0
14 *111:27 *717:15 0.0136239
15 *111:27 *733:15 0.000326594
16 *31:9 *111:31 0.000763304
17 *33:9 *111:31 0.177597
18 *34:9 *111:31 0.00850412
19 *35:9 *111:31 0.00757949
20 *50:19 *111:21 0.000830829
21 *70:18 *111:27 3.60493e-05
22 *105:29 *111:27 0.275008
23 *105:33 *111:31 0.0222161
24 *108:7 *111:21 1.90292e-05
25 *109:7 *111:21 1.90292e-05
26 *109:25 *111:31 0.183031
*RES
1 *897:io_out[7] *111:21 39.8229 
2 *111:21 *111:23 60.4763 
3 *111:23 *111:25 8 
4 *111:25 *111:27 516.93 
5 *111:27 *111:29 8 
6 *111:29 *111:31 2873.63 
7 *111:31 io_out[14] 10.8187 
*END

*D_NET *112 0.826961
*CONN
*P io_out[15] O
*I *897:io_out[8] O *D soc_sys
*CAP
1 io_out[15] 3.34202e-05
2 *897:io_out[8] 0.00140271
3 *112:45 0.00369641
4 *112:43 0.00370238
5 *112:41 0.069532
6 *112:39 0.0694926
7 *112:37 0.119388
8 *112:35 0.119388
9 *112:33 0.0368591
10 *112:31 0.0377719
11 *112:21 0.00235332
12 *112:19 0.00146775
13 *112:17 0.00106755
14 *112:15 0.00162299
15 *112:9 0.00198537
16 *112:9 *113:7 0
17 *112:9 *118:11 0
18 *112:15 *143:17 0.000644811
19 *112:31 *542:34 0.000677845
20 *112:33 *540:50 0.0164604
21 *112:37 *118:75 0
22 *112:37 *698:11 0
23 *112:37 *698:13 0
24 *112:37 *699:17 0
25 *112:37 *699:21 0
26 *112:37 *703:11 0
27 *112:37 *705:9 3.38806e-05
28 *112:37 *706:9 0.000730052
29 *112:37 *722:9 0.0303943
30 *112:37 *776:11 0
31 *112:37 *789:9 4.15283e-06
32 *897:io_in[0] *112:21 0.000566573
33 *897:io_in[29] *112:15 0.000350911
34 *897:io_in[30] *112:15 1.73154e-05
35 *897:io_in[30] *112:21 0.000202507
36 *39:15 *112:41 0.00166572
37 *40:25 *112:33 0.110529
38 *40:35 *112:31 0.000763086
39 *40:35 *112:33 0.00101656
40 *44:29 *112:21 0.000118603
41 *50:19 *112:9 0.00121883
42 *74:43 *112:31 0
43 *77:21 *112:41 0.0147806
44 *97:21 *112:17 0.000519805
45 *98:17 *112:17 0.000503829
46 *104:22 *112:33 0.00629859
47 *104:26 *112:37 0.143502
48 *107:17 *112:21 0.00648672
49 *107:21 *112:31 0
50 *108:9 *112:17 0.00556292
51 *108:9 *112:21 0.0011896
52 *109:9 *112:17 0.00261886
53 *109:9 *112:21 0.00911079
54 *109:19 *112:31 0.000401402
55 *109:21 *112:33 0
56 *111:21 *112:9 0.00082819
*RES
1 *897:io_out[8] *112:9 49.408 
2 *112:9 *112:15 17.6016 
3 *112:15 *112:17 71.0293 
4 *112:17 *112:19 0.621429 
5 *112:19 *112:21 115.896 
6 *112:21 *112:31 35.353 
7 *112:31 *112:33 1239.81 
8 *112:33 *112:35 15 
9 *112:35 *112:37 3522.63 
10 *112:37 *112:39 15 
11 *112:39 *112:41 1475.88 
12 *112:41 *112:43 0.849286 
13 *112:43 *112:45 77.5646 
14 *112:45 io_out[15] 15.6007 
*END

*D_NET *113 0.799784
*CONN
*P io_out[16] O
*I *897:io_out[9] O *D soc_sys
*CAP
1 io_out[16] 0.152468
2 *897:io_out[9] 0.00111416
3 *113:23 0.152468
4 *113:21 0.0301862
5 *113:19 0.0302721
6 *113:13 0.0364812
7 *113:11 0.0363953
8 *113:9 0.00381609
9 *113:7 0.00493025
10 *113:7 *114:7 0
11 *113:9 io_out[37] 0.00059238
12 *113:9 *114:17 0.00704192
13 *113:9 *136:9 0.00354725
14 *113:13 *141:13 0
15 *113:13 *142:18 0.119232
16 *113:13 *558:19 0.010585
17 *113:13 *573:15 0.00710444
18 *113:13 *583:15 0.0328028
19 *113:13 *596:15 0.00498998
20 *113:13 *642:21 0.0025282
21 *113:13 *789:13 0.000298633
22 *113:21 *898:wbs_adr_i[22] 0.000610224
23 *113:21 *898:wbs_dat_i[27] 0.000398256
24 *113:21 *142:26 0.000351611
25 *113:21 *797:21 0.000133307
26 *113:21 *807:13 0.0311756
27 *113:21 *818:13 0.00245513
28 *897:io_in[26] *113:9 0.00165995
29 *897:io_in[30] *113:9 0.000991472
30 *39:41 *113:9 0.000136948
31 *43:33 *113:13 4.07799e-05
32 *43:37 *113:9 0.00992346
33 *44:25 *113:13 6.59383e-06
34 *48:43 *113:9 0.00210835
35 *56:29 *113:9 0.000409177
36 *65:13 *113:21 0.107985
37 *65:21 *113:13 0.000266479
38 *67:97 io_out[16] 0
39 *103:21 *113:7 0
40 *109:9 *113:9 0
41 *110:9 *113:9 0.00427669
42 *112:9 *113:7 0
*RES
1 *897:io_out[9] *113:7 10.4752 
2 *113:7 *113:9 239.602 
3 *113:9 *113:11 8 
4 *113:11 *113:13 230.093 
5 *113:13 *113:19 24.3775 
6 *113:19 *113:21 1198.84 
7 *113:21 *113:23 15 
8 *113:23 io_out[16] 3530.13 
*END

*D_NET *114 0.778762
*CONN
*P io_out[17] O
*I *897:io_out[10] O *D soc_sys
*CAP
1 io_out[17] 0.152259
2 *897:io_out[10] 0.000470984
3 *114:31 0.152259
4 *114:29 0.0405723
5 *114:27 0.0422565
6 *114:17 0.00272207
7 *114:15 0.00163443
8 *114:9 0.00428682
9 *114:7 0.00416124
10 *114:17 io_out[37] 0.000649762
11 *114:27 *118:41 0.00052616
12 *114:27 *540:19 0.00104285
13 *114:27 *541:15 0
14 *114:29 *898:wbs_dat_i[26] 0.000681028
15 *114:29 *898:wbs_stb_i 0.00262415
16 *114:29 *118:45 0.0813174
17 *114:29 *646:30 0.0194346
18 *114:29 *656:29 0.013281
19 *114:29 *808:21 0.0307715
20 *114:29 *834:11 0.00012144
21 *114:29 *882:17 0.0027357
22 *114:29 *883:21 0.00120788
23 *897:io_in[19] *114:9 0.00126059
24 *897:io_in[30] *114:17 0.000543488
25 *37:21 *114:9 1.33927e-05
26 *42:21 *114:9 0.00120912
27 *43:33 *114:27 0.00430392
28 *47:41 *114:9 0.000674372
29 *50:19 *114:9 0
30 *53:31 *114:9 0.000389118
31 *57:19 *114:9 0.00457795
32 *107:9 *114:9 0.00392531
33 *107:15 *114:15 0.000365108
34 *109:19 *114:27 0.00104941
35 *109:21 *114:29 0.191345
36 *110:9 *114:17 0.007047
37 *113:7 *114:7 0
38 *113:9 *114:17 0.00704192
*RES
1 *897:io_out[10] *114:7 9.10133 
2 *114:7 *114:9 150.158 
3 *114:9 *114:15 17.5157 
4 *114:15 *114:17 89.5893 
5 *114:17 *114:27 41.2864 
6 *114:27 *114:29 2092.62 
7 *114:29 *114:31 15 
8 *114:31 io_out[17] 3525.55 
*END

*D_NET *115 0.723955
*CONN
*P io_out[18] O
*I *897:io_out[11] O *D soc_sys
*CAP
1 io_out[18] 0.000199643
2 *897:io_out[11] 0.021515
3 *115:26 0.167685
4 *115:24 0.293109
5 *115:14 0.158045
6 *115:12 0.0539362
7 *115:12 *119:12 0.0026472
8 *115:14 *897:wbs_dat_i[5] 0.000145862
9 *115:14 *570:15 0.0112863
10 *115:24 *699:63 0.0148811
11 *24:17 *115:14 0
12 *24:17 *115:24 0.000365857
13 *75:34 io_out[18] 9.22365e-05
14 *77:17 *115:14 0
15 *104:16 *115:12 4.60972e-05
*RES
1 *897:io_out[11] *115:12 16.6085 
2 *115:12 *115:14 121.763 
3 *115:14 *115:24 41.8971 
4 *115:24 *115:26 461.713 
5 *115:26 io_out[18] 19.0744 
*END

*D_NET *116 0.67734
*CONN
*P io_out[19] O
*I *897:io_out[12] O *D soc_sys
*CAP
1 io_out[19] 8.30691e-05
2 *897:io_out[12] 0.0285124
3 *116:27 0.0196732
4 *116:25 0.0195901
5 *116:23 0.158562
6 *116:21 0.187074
7 *116:21 io_out[35] 0.000221258
8 *116:21 io_out[36] 0.00552526
9 *116:21 *118:9 8.43577e-06
10 *116:21 *121:9 0.000277518
11 *116:21 *122:15 1.79829e-05
12 *116:21 *125:24 0.000383883
13 *116:21 *127:9 0.000277518
14 *116:21 *129:27 0.00538414
15 *116:21 *136:9 0.000641361
16 *116:23 *571:19 0.00819575
17 *116:23 *665:17 0.0322544
18 *40:11 *116:27 0.0134925
19 *42:11 *116:27 0.00953655
20 *48:43 *116:21 0.000110915
21 *56:29 *116:21 0.0023669
22 *75:34 *116:27 0.0064345
23 *77:21 *116:27 0.110492
24 *80:26 *116:27 0.0666831
25 *82:21 *116:27 0.00154165
*RES
1 *897:io_out[12] *116:21 49.0571 
2 *116:21 *116:23 578.11 
3 *116:23 *116:25 8 
4 *116:25 *116:27 203.946 
5 *116:27 io_out[19] 9.48107 
*END

*D_NET *118 0.664981
*CONN
*P io_out[20] O
*I *897:io_out[13] O *D soc_sys
*CAP
1 io_out[20] 0.000193648
2 *897:io_out[13] 0.000174935
3 *118:79 0.0059345
4 *118:77 0.00574085
5 *118:75 0.134108
6 *118:73 0.134108
7 *118:71 0.000713493
8 *118:57 0.0173681
9 *118:55 0.0169624
10 *118:45 0.0263163
11 *118:43 0.0260085
12 *118:41 0.0362649
13 *118:19 0.0372001
14 *118:17 0.0019347
15 *118:11 0.00684203
16 *118:9 0.00601744
17 *118:11 *141:9 0.00112279
18 *118:11 *142:12 0.000249831
19 *118:41 *540:19 0.00525379
20 *118:41 *540:48 0.000126949
21 *118:41 *540:50 0.000132347
22 *118:41 *541:21 0.00195514
23 *118:41 *541:27 0.00294146
24 *118:41 *542:34 0.00263753
25 *118:41 *640:17 0.00117616
26 *118:41 *644:17 0.000510779
27 *118:41 *646:30 0.00464077
28 *118:41 *649:25 0.000153166
29 *118:41 *650:45 0.000124741
30 *118:45 *646:30 0.00975554
31 *118:45 *655:33 0.0175476
32 *118:45 *656:29 0.00704466
33 *118:55 *897:adc_data[4] 0.000137137
34 *118:55 *647:31 0.000656204
35 *118:55 *648:41 0.00040255
36 *118:55 *656:29 0.000142283
37 *118:57 *699:17 0.000161905
38 *118:57 *699:21 0.00151474
39 *118:57 *699:43 0.00588437
40 *118:57 *699:47 0.00181244
41 *118:57 *741:9 0.000662417
42 *118:57 *758:17 0.000510961
43 *118:57 *768:12 3.38012e-05
44 *118:57 *773:40 0.00528266
45 *118:57 *776:13 0.00206454
46 *118:57 *777:9 0.000508028
47 *118:57 *787:11 0.00103848
48 *118:71 *897:sram_dat_i[23] 0.000297357
49 *118:71 *874:11 0.000318464
50 *118:75 *652:29 1.85554e-05
51 *118:75 *656:23 0.000219827
52 *118:75 *657:19 4.60157e-05
53 *118:75 *699:49 0.0071494
54 *118:75 *700:11 0.0124688
55 *118:75 *722:9 0
56 *118:75 *773:42 0.00103845
57 *118:75 *776:13 0
58 *118:75 *776:31 0
59 *118:75 *777:9 0
60 *897:io_in[0] *118:19 0.000395262
61 *897:io_in[30] *118:19 0.000122544
62 *897:io_in[3] *118:17 0.000103649
63 *897:io_in[4] *118:17 0.000149282
64 *39:41 *118:19 0.00633024
65 *40:35 *118:41 0.000252988
66 *40:37 *118:11 0
67 *44:29 *118:19 0
68 *50:19 *118:11 0
69 *67:241 *118:57 0.000823472
70 *67:261 *118:41 0.00113421
71 *74:61 *118:57 0.00150176
72 *77:21 *118:79 0.00390643
73 *103:29 *118:17 0
74 *104:16 *118:9 0.000203612
75 *104:16 *118:11 0.000625226
76 *104:18 *118:11 0.00480538
77 *104:22 *118:41 0.00174985
78 *104:26 *118:71 2.11066e-05
79 *107:21 *118:41 0.000617582
80 *109:9 *118:19 0.00627232
81 *109:19 *118:41 0.000484015
82 *112:9 *118:11 0
83 *112:37 *118:75 0
84 *114:27 *118:41 0.00052616
85 *114:29 *118:45 0.0813174
86 *116:21 *118:9 8.43577e-06
*RES
1 *897:io_out[13] *118:9 8.63467 
2 *118:9 *118:11 167.765 
3 *118:11 *118:17 18.2885 
4 *118:17 *118:19 80.4336 
5 *118:19 *118:41 42.7182 
6 *118:41 *118:43 15 
7 *118:43 *118:45 886.302 
8 *118:45 *118:55 33.9448 
9 *118:55 *118:57 68.9808 
10 *118:57 *118:71 36.7675 
11 *118:71 *118:73 15 
12 *118:73 *118:75 3141.96 
13 *118:75 *118:77 15 
14 *118:77 *118:79 121.872 
15 *118:79 io_out[20] 18.7389 
*END

*D_NET *119 0.462656
*CONN
*P io_out[21] O
*I *897:io_out[14] O *D soc_sys
*CAP
1 io_out[21] 0.00109737
2 *897:io_out[14] 0.01527
3 *119:22 0.133699
4 *119:20 0.132601
5 *119:18 0.0288212
6 *119:16 0.0288212
7 *119:14 0.0338277
8 *119:12 0.0490977
9 *119:14 *120:14 0
10 *119:14 *601:13 0.0105905
11 *119:18 *895:e_pd 7.51535e-06
12 *119:18 *699:63 0.0198074
13 *119:22 *700:19 0.00569973
14 *75:34 io_out[21] 0.00055832
15 *104:16 *119:12 0.000110069
16 *115:12 *119:12 0.0026472
*RES
1 *897:io_out[14] *119:12 15.1332 
2 *119:12 *119:14 124.958 
3 *119:14 *119:16 8 
4 *119:16 *119:18 96.7419 
5 *119:18 *119:20 8 
6 *119:20 *119:22 463.236 
7 *119:22 io_out[21] 24.7252 
*END

*D_NET *120 0.412844
*CONN
*P io_out[22] O
*I *897:io_out[15] O *D soc_sys
*CAP
1 io_out[22] 0.000472385
2 *897:io_out[15] 0.0167276
3 *120:22 0.135718
4 *120:20 0.135246
5 *120:18 0.0111712
6 *120:14 0.0475431
7 *120:12 0.0530995
8 *120:12 *126:12 0.00225972
9 *23:9 *120:14 0.00675827
10 *75:34 io_out[22] 0.00152813
11 *80:26 io_out[22] 0.00152813
12 *104:16 *120:12 0.000792422
13 *119:14 *120:14 0
*RES
1 *897:io_out[15] *120:12 18.0561 
2 *120:12 *120:14 123.689 
3 *120:14 *120:18 45.3221 
4 *120:18 *120:20 8 
5 *120:20 *120:22 461.205 
6 *120:22 io_out[22] 21.7363 
*END

*D_NET *121 0.446491
*CONN
*P io_out[23] O
*I *897:io_out[16] O *D soc_sys
*CAP
1 io_out[23] 0.00130137
2 *897:io_out[16] 0.00114138
3 *121:25 0.13205
4 *121:23 0.13816
5 *121:9 0.00944451
6 *121:7 0.00317452
7 *121:7 *122:7 0
8 *121:9 io_out[36] 0.000306674
9 *121:9 *122:17 0.00359906
10 *121:9 *127:9 0.00956632
11 *121:9 *133:29 0.000393267
12 *121:9 *136:9 0.0046479
13 *121:23 *897:wbs_we_i 0.000180957
14 *121:25 *125:34 0
15 *121:25 *126:22 0.134378
16 *121:25 *129:51 4.07633e-05
17 *121:25 *608:25 0.000827269
18 *121:25 *608:27 0.000181429
19 io_oeb[35] *121:9 0.000948286
20 *48:43 *121:9 0.00103946
21 *51:23 *121:23 0.00109298
22 *82:21 io_out[23] 0.00296986
23 *85:16 *121:23 0.00019666
24 *86:7 *121:23 3.62034e-05
25 *87:15 *121:23 0.000536942
26 *116:21 *121:9 0.000277518
*RES
1 *897:io_out[16] *121:7 10.4752 
2 *121:7 *121:9 147.341 
3 *121:9 *121:23 21.886 
4 *121:23 *121:25 560.594 
5 *121:25 io_out[23] 25.1025 
*END

*D_NET *122 0.406997
*CONN
*P io_out[24] O
*I *897:io_out[17] O *D soc_sys
*CAP
1 io_out[24] 0.0001396
2 *897:io_out[17] 0.000465466
3 *122:25 0.00925965
4 *122:23 0.0092057
5 *122:17 0.103437
6 *122:15 0.103945
7 *122:9 0.00171366
8 *122:7 0.001586
9 *122:7 *123:7 0
10 *122:15 io_out[35] 0
11 *122:15 io_out[36] 0.000581314
12 *122:15 *136:7 4.45304e-05
13 *122:17 *124:9 0
14 *122:17 *124:17 0.046936
15 *122:17 *127:9 0.000493571
16 *122:17 *131:9 0.000200512
17 *122:17 *133:29 0.00621096
18 *122:17 *136:9 0.000286768
19 *122:25 io_out[25] 0.000325813
20 io_oeb[35] *122:15 0
21 *46:11 *122:25 0.0251831
22 *46:19 *122:17 0
23 *47:11 *122:25 0.000193105
24 *47:19 *122:17 0
25 *47:41 *122:9 0.00116479
26 *48:9 *122:23 0
27 *48:19 *122:17 0
28 *51:25 *122:17 0.00787845
29 *57:19 *122:9 0.00397277
30 *74:21 *122:15 8.19352e-05
31 *84:26 *122:17 0
32 *84:34 *122:25 0.0303709
33 *85:22 *122:17 0
34 *85:30 *122:17 0.00320525
35 *85:30 *122:25 0.00980354
36 *86:17 *122:17 0
37 *87:17 *122:17 0.00632298
38 *89:19 *122:17 0.000378298
39 *92:9 *122:17 0.00347344
40 *92:17 *122:17 0.0153178
41 *93:19 *122:17 0.0112027
42 *116:21 *122:15 1.79829e-05
43 *121:7 *122:7 0
44 *121:9 *122:17 0.00359906
*RES
1 *897:io_out[17] *122:7 9.10133 
2 *122:7 *122:9 51.5579 
3 *122:9 *122:15 17.6016 
4 *122:15 *122:17 2571.49 
5 *122:17 *122:23 16.1848 
6 *122:23 *122:25 83.832 
7 *122:25 io_out[24] 8.53573 
*END

*D_NET *123 0.3264
*CONN
*P io_out[25] O
*I *897:io_out[18] O *D soc_sys
*CAP
1 io_out[25] 0.00140424
2 *897:io_out[18] 0.000920721
3 *123:17 0.129883
4 *123:15 0.129126
5 *123:9 0.00413112
6 *123:7 0.00440494
7 *123:7 *124:7 0
8 *123:9 *124:9 0.00293294
9 *123:9 *132:17 0.000682915
10 *123:9 *133:17 0.00460917
11 *123:15 *127:15 0.000802234
12 *897:io_in[28] *123:9 0.000326527
13 *45:21 *123:17 0.00801285
14 *47:19 *123:9 3.17684e-05
15 *47:33 *123:15 0.00135307
16 *48:27 *123:9 0.000254226
17 *48:33 *123:9 0.000225953
18 *48:35 *123:9 0.000381582
19 *74:23 *123:9 0.00390081
20 *76:53 *123:9 0.00222721
21 *83:11 *123:9 0.00353119
22 *85:20 *123:15 0.000129895
23 *87:33 *123:17 0
24 *88:6 *123:17 0
25 *89:25 *123:15 0.000131391
26 *89:27 *123:17 0.012266
27 *94:15 *123:9 0.00120732
28 *97:13 *123:9 0.00122625
29 *98:17 *123:9 0.0119711
30 *103:15 *123:9 0
31 *122:7 *123:7 0
32 *122:25 io_out[25] 0.000325813
*RES
1 *897:io_out[18] *123:7 9.96 
2 *123:7 *123:9 240.306 
3 *123:9 *123:15 18.8467 
4 *123:15 *123:17 463.87 
5 *123:17 io_out[25] 12.1981 
*END

*D_NET *124 0.52173
*CONN
*P io_out[26] O
*I *897:io_out[19] O *D soc_sys
*CAP
1 io_out[26] 0.000220869
2 *897:io_out[19] 0.000985786
3 *124:17 0.0302441
4 *124:15 0.0302464
5 *124:9 0.0136761
6 *124:7 0.0144387
7 *124:9 io_out[36] 0.000282337
8 *124:9 *130:9 0.0437807
9 *124:9 *130:17 0.00386231
10 *124:9 *132:17 0.00515318
11 *124:17 io_out[29] 0.000325813
12 *124:17 io_out[31] 0.000325813
13 *124:17 *130:17 1.08063e-05
14 io_oeb[27] *124:17 0.000325813
15 io_oeb[28] *124:17 0.000325813
16 io_oeb[31] *124:17 0.000325813
17 io_oeb[32] *124:15 0.000354738
18 io_oeb[32] *124:17 0.000325813
19 io_oeb[34] *124:9 0.00110248
20 *17:9 *124:17 0.000325813
21 *47:19 *124:9 0
22 *48:43 *124:9 0.000859421
23 *49:17 *124:17 0.000325813
24 *50:9 *124:17 0.000325813
25 *54:9 *124:17 0.000248617
26 *55:9 *124:17 0.000325813
27 *84:34 *124:17 0.00465302
28 *85:22 *124:9 0.0482599
29 *85:30 *124:17 0.10807
30 *86:17 *124:9 0.00320541
31 *86:25 *124:17 0.123908
32 *92:17 *124:17 0.0206628
33 *94:15 *124:9 0.00121433
34 *97:13 *124:9 0.0015149
35 *98:17 *124:9 0.0116478
36 *122:17 *124:9 0
37 *122:17 *124:17 0.046936
38 *123:7 *124:7 0
39 *123:9 *124:9 0.00293294
*RES
1 *897:io_out[19] *124:7 10.1317 
2 *124:7 *124:9 850.922 
3 *124:9 *124:15 16.7 
4 *124:15 *124:17 304.315 
5 *124:17 io_out[26] 8.53573 
*END

*D_NET *125 0.334385
*CONN
*P io_out[27] O
*I *897:io_out[20] O *D soc_sys
*CAP
1 io_out[27] 0.00534263
2 *897:io_out[20] 0.0233286
3 *125:34 0.130683
4 *125:32 0.133413
5 *125:24 0.0314011
6 *125:24 *126:12 3.38012e-05
7 *125:24 *598:17 0.00409448
8 *125:32 *598:17 0
9 *125:32 *630:16 0.000150535
10 *56:29 *125:24 0.00232845
11 *73:21 *125:32 0
12 *75:30 *125:32 0
13 *78:19 *125:32 0.00304759
14 *104:16 *125:24 0.000177896
15 *116:21 *125:24 0.000383883
16 *121:25 *125:34 0
*RES
1 *897:io_out[20] *125:24 49.33 
2 *125:24 *125:32 45.7808 
3 *125:32 *125:34 365.37 
4 *125:34 io_out[27] 24.5928 
*END

*D_NET *126 0.370794
*CONN
*P io_out[28] O
*I *897:io_out[21] O *D soc_sys
*CAP
1 io_out[28] 0.00582261
2 *897:io_out[21] 0.00701047
3 *126:22 0.0459418
4 *126:20 0.0405252
5 *126:16 0.0161436
6 *126:12 0.0227481
7 *126:16 *542:22 0.000145862
8 *126:16 *576:13 0
9 *126:20 *897:wb_clk_i 0.00126066
10 *126:20 *541:57 0.00126428
11 *126:22 *129:51 0.0932135
12 *56:15 *126:16 0
13 *104:16 *126:12 4.60972e-05
14 *120:12 *126:12 0.00225972
15 *121:25 *126:22 0.134378
16 *125:24 *126:12 3.38012e-05
*RES
1 *897:io_out[21] *126:12 11.9563 
2 *126:12 *126:16 49.6901 
3 *126:16 *126:20 10.4603 
4 *126:20 *126:22 317.516 
5 *126:22 io_out[28] 25.6232 
*END

*D_NET *127 0.333824
*CONN
*P io_out[29] O
*I *897:io_out[22] O *D soc_sys
*CAP
1 io_out[29] 0.00125887
2 *897:io_out[22] 0.00105798
3 *127:17 0.058957
4 *127:15 0.0583336
5 *127:9 0.00375369
6 *127:7 0.00417628
7 *127:9 *130:9 0.0053068
8 *127:9 *133:29 0.000337864
9 *46:35 *127:17 0.024274
10 *46:49 *127:7 0.000190638
11 *48:43 *127:9 0.00274873
12 *50:19 *127:17 0.0156381
13 *86:17 *127:9 0.00460666
14 *87:25 *127:17 0.0188849
15 *87:33 *127:17 0.0252644
16 *88:6 *127:17 0.000259116
17 *89:25 *127:15 0.000991983
18 *91:11 *127:17 0.0881254
19 *92:9 *127:9 0.00665024
20 *94:17 *127:9 0.00090201
21 *97:13 *127:9 0.000640521
22 *116:21 *127:9 0.000277518
23 *121:9 *127:9 0.00956632
24 *122:17 *127:9 0.000493571
25 *123:15 *127:15 0.000802234
26 *124:17 io_out[29] 0.000325813
*RES
1 *897:io_out[22] *127:7 10.3893 
2 *127:7 *127:9 224.108 
3 *127:9 *127:15 18.0739 
4 *127:15 *127:17 269.028 
5 *127:17 io_out[29] 10.996 
*END

*D_NET *129 0.260511
*CONN
*P io_out[30] O
*I *897:io_out[23] O *D soc_sys
*CAP
1 io_out[30] 0.00606342
2 *897:io_out[23] 0.0111049
3 *129:51 0.0487792
4 *129:49 0.0437188
5 *129:35 0.0105923
6 *129:27 0.0206942
7 *129:27 io_out[35] 6.65013e-06
8 *129:27 *133:15 0.00011949
9 *129:35 *897:wb_clk_i 0.00270112
10 *129:35 *897:wbs_adr_i[1] 0.00372559
11 *129:35 *897:wbs_sel_i[0] 9.44899e-05
12 *129:35 *554:25 0.00383535
13 *129:35 *608:21 0.000354841
14 *129:49 *897:wbs_adr_i[0] 0.000305529
15 *129:49 *541:57 0.00184886
16 *129:49 *542:22 0.00126426
17 *129:49 *576:13 3.04075e-06
18 *129:49 *608:21 0.000940618
19 *129:51 *897:wbs_we_i 4.24394e-05
20 *46:43 *129:27 0.000440571
21 *46:49 *129:27 7.94099e-05
22 *50:19 *129:27 0.00143808
23 *78:19 *129:35 0.00110665
24 *104:16 *129:27 0.000101477
25 *105:23 *129:27 0.00251133
26 *116:21 *129:27 0.00538414
27 *121:25 *129:51 4.07633e-05
28 *126:22 *129:51 0.0932135
*RES
1 *897:io_out[23] *129:27 49.6915 
2 *129:27 *129:35 48.3984 
3 *129:35 *129:49 29.2789 
4 *129:49 *129:51 220.539 
5 *129:51 io_out[30] 25.7949 
*END

*D_NET *130 0.203215
*CONN
*P io_out[31] O
*I *897:io_out[24] O *D soc_sys
*CAP
1 io_out[31] 0.00047931
2 *897:io_out[24] 0.00107422
3 *130:17 0.0169904
4 *130:15 0.0165731
5 *130:9 0.00691294
6 *130:7 0.00792518
7 *130:7 *131:7 0
8 *130:9 io_out[36] 0.000127194
9 *130:9 *132:17 0.00371106
10 *130:17 *132:17 0.00543402
11 io_oeb[34] *130:9 0.00216254
12 *46:49 *130:7 0
13 *48:11 *130:17 0.00027497
14 *48:17 io_out[31] 1.398e-05
15 *48:19 *130:17 0.00455813
16 *48:43 *130:9 0.00209225
17 *54:11 *130:17 0.00581053
18 *55:11 *130:17 0.00115255
19 *84:26 *130:17 0.00360186
20 *85:22 *130:17 0.00314492
21 *85:30 *130:17 0.00261766
22 *86:17 *130:9 0.0314967
23 *86:17 *130:17 0.00121749
24 *92:17 *130:17 0.0225017
25 *93:27 *130:17 0.00839142
26 *94:17 *130:17 0.000242593
27 *97:13 *130:9 0.00142184
28 *124:9 *130:9 0.0437807
29 *124:9 *130:17 0.00386231
30 *124:17 io_out[31] 0.000325813
31 *124:17 *130:17 1.08063e-05
32 *127:9 *130:9 0.0053068
*RES
1 *897:io_out[24] *130:7 10.2176 
2 *130:7 *130:9 557.235 
3 *130:9 *130:15 16.0989 
4 *130:15 *130:17 110.107 
5 *130:17 io_out[31] 9.10693 
*END

*D_NET *131 0.128361
*CONN
*P io_out[32] O
*I *897:io_out[25] O *D soc_sys
*CAP
1 io_out[32] 0.00354355
2 *897:io_out[25] 0.00135656
3 *131:25 0.0479561
4 *131:23 0.0479846
5 *131:9 0.00548919
6 *131:7 0.0032737
7 *131:7 *132:7 0
8 *131:9 io_out[35] 0.000127411
9 *131:9 *132:9 0.005377
10 io_oeb[34] *131:23 0
11 io_oeb[35] *131:9 0.000127411
12 *45:45 *131:7 0.000121265
13 *47:33 *131:23 4.84709e-06
14 *51:11 *131:25 0
15 *51:23 *131:23 9.897e-06
16 *51:25 *131:9 0.00926544
17 *76:45 *131:23 0.000549616
18 *80:20 *131:23 0.000104046
19 *85:16 *131:23 0.000807415
20 *87:17 *131:9 0.000953854
21 *88:6 *131:23 3.57972e-05
22 *93:17 *131:23 8.54984e-05
23 *94:15 *131:23 0.000987472
24 *122:17 *131:9 0.000200512
25 *130:7 *131:7 0
*RES
1 *897:io_out[25] *131:7 10.8187 
2 *131:7 *131:9 134.664 
3 *131:9 *131:23 21.9319 
4 *131:23 *131:25 137.144 
5 *131:25 io_out[32] 17.4845 
*END

*D_NET *132 0.119284
*CONN
*P io_out[33] O
*I *897:io_out[26] O *D soc_sys
*CAP
1 io_out[33] 0.000483586
2 *897:io_out[26] 0.00138849
3 *132:17 0.0103423
4 *132:15 0.0103471
5 *132:9 0.00497427
6 *132:7 0.0058743
7 *132:7 *133:15 0
8 io_oeb[34] *132:17 0.010199
9 *45:45 *132:7 0.000121265
10 *57:11 *132:17 0.00559116
11 *84:26 *132:17 0.00580582
12 *85:22 *132:17 0.00665659
13 *86:15 *132:15 3.58485e-05
14 *86:23 io_out[33] 0
15 *87:17 *132:9 0.000323423
16 *89:19 *132:9 0.000385919
17 *93:17 *132:15 0
18 *93:27 *132:17 0.025401
19 *94:17 *132:17 0.0109956
20 *97:13 *132:7 0
21 *123:9 *132:17 0.000682915
22 *124:9 *132:17 0.00515318
23 *130:9 *132:17 0.00371106
24 *130:17 *132:17 0.00543402
25 *131:7 *132:7 0
26 *131:9 *132:9 0.005377
*RES
1 *897:io_out[26] *132:7 10.9904 
2 *132:7 *132:9 150.862 
3 *132:9 *132:15 16.9576 
4 *132:15 *132:17 84.5936 
5 *132:17 io_out[33] 9.15173 
*END

*D_NET *133 0.06704
*CONN
*P io_out[34] O
*I *897:io_out[27] O *D soc_sys
*CAP
1 io_out[34] 0.000221605
2 *897:io_out[27] 0.000890136
3 *133:29 0.00865387
4 *133:23 0.00883173
5 *133:17 0.00122605
6 *133:15 0.00171672
7 *133:15 *136:7 0.000744269
8 *133:29 io_out[35] 0.000222372
9 io_oeb[34] *133:29 0.000291474
10 io_oeb[35] *133:29 0.00487602
11 *897:io_in[28] *133:17 0.000816832
12 *46:43 *133:15 0.000518392
13 *48:35 *133:17 0.00237206
14 *48:41 *133:15 0.000117359
15 *50:19 *133:15 0.000457688
16 *51:25 *133:29 0.000476761
17 *58:15 *133:29 0.00270643
18 *87:17 *133:29 0.00110924
19 *92:9 *133:29 0.00250061
20 *92:17 *133:29 8.04307e-05
21 *93:19 *133:29 0.00217411
22 *94:17 *133:29 0.0141713
23 *103:13 *133:15 0.000180375
24 *103:15 *133:17 1.33927e-05
25 *121:9 *133:29 0.000393267
26 *122:17 *133:29 0.00621096
27 *123:9 *133:17 0.00460917
28 *127:9 *133:29 0.000337864
29 *129:27 *133:15 0.00011949
30 *132:7 *133:15 0
*RES
1 *897:io_out[27] *133:15 39.4566 
2 *133:15 *133:17 58.6007 
3 *133:17 *133:23 16.7859 
4 *133:23 *133:29 49.5899 
5 *133:29 io_out[34] 8.53573 
*END

*D_NET *134 0.0130002
*CONN
*P io_out[35] O
*I *897:io_out[28] O *D soc_sys
*CAP
1 io_out[35] 0.0042261
2 *897:io_out[28] 0.0042261
3 io_out[35] io_out[36] 4.55747e-05
4 io_oeb[35] io_out[35] 0.00271958
5 *51:25 io_out[35] 0.00113031
6 *97:13 io_out[35] 7.48824e-05
7 *116:21 io_out[35] 0.000221258
8 *122:15 io_out[35] 0
9 *129:27 io_out[35] 6.65013e-06
10 *131:9 io_out[35] 0.000127411
11 *133:29 io_out[35] 0.000222372
*RES
1 *897:io_out[28] io_out[35] 32.0608 
*END

*D_NET *135 0.0257261
*CONN
*P io_out[36] O
*I *897:io_out[29] O *D soc_sys
*CAP
1 io_out[36] 0.00488604
2 *897:io_out[29] 0.00488604
3 io_out[36] io_out[37] 0.000325813
4 io_out[36] *136:7 0
5 io_out[36] *136:9 0.000270678
6 io_out[36] *136:15 0.000126534
7 io_out[35] io_out[36] 4.55747e-05
8 *897:io_in[28] io_out[36] 0.00510463
9 *897:io_in[29] io_out[36] 0.000585948
10 *897:io_in[30] io_out[36] 1.3091e-05
11 *46:51 io_out[36] 0.000127411
12 *51:25 io_out[36] 0.000105613
13 *56:29 io_out[36] 0.00146362
14 *74:21 io_out[36] 5.14623e-05
15 *97:13 io_out[36] 0.000557932
16 *98:25 io_out[36] 0
17 *109:9 io_out[36] 0.000352944
18 *116:21 io_out[36] 0.00552526
19 *121:9 io_out[36] 0.000306674
20 *122:15 io_out[36] 0.000581314
21 *124:9 io_out[36] 0.000282337
22 *130:9 io_out[36] 0.000127194
*RES
1 *897:io_out[29] io_out[36] 42.9061 
*END

*D_NET *136 0.067523
*CONN
*P io_out[37] O
*I *897:io_out[30] O *D soc_sys
*CAP
1 io_out[37] 0.0052801
2 *897:io_out[30] 0.000756068
3 *136:15 0.00540685
4 *136:9 0.00207204
5 *136:7 0.00270136
6 io_oeb[35] *136:7 9.28029e-05
7 io_out[36] io_out[37] 0.000325813
8 io_out[36] *136:7 0
9 io_out[36] *136:9 0.000270678
10 io_out[36] *136:15 0.000126534
11 *897:io_in[0] io_out[37] 0
12 *897:io_in[30] io_out[37] 0.0106839
13 *897:io_in[30] *136:15 6.65013e-06
14 *39:41 io_out[37] 0.000395262
15 *43:37 io_out[37] 0.000395262
16 *48:41 *136:7 9.94604e-05
17 *48:43 io_out[37] 0.000116093
18 *48:43 *136:9 0.000848761
19 *51:25 io_out[37] 0.000393182
20 *51:25 *136:9 0.00401597
21 *56:29 *136:9 0.000455731
22 *74:21 *136:7 0.000848743
23 *74:39 io_out[37] 0.00164211
24 *98:27 io_out[37] 0.0150694
25 *103:13 *136:7 3.82527e-05
26 *110:9 io_out[37] 0.00177405
27 *110:9 *136:9 0.00255365
28 *113:9 io_out[37] 0.00059238
29 *113:9 *136:9 0.00354725
30 *114:17 io_out[37] 0.000649762
31 *116:21 *136:9 0.000641361
32 *121:9 *136:9 0.0046479
33 *122:15 *136:7 4.45304e-05
34 *122:17 *136:9 0.000286768
35 *133:15 *136:7 0.000744269
*RES
1 *897:io_out[30] *136:7 10.5611 
2 *136:7 *136:9 133.959 
3 *136:9 *136:15 16.2707 
4 *136:15 io_out[37] 45.2755 
*END

*D_NET *141 0.697468
*CONN
*P io_out[7] O
*I *897:io_out[0] O *D soc_sys
*CAP
1 io_out[7] 0.000259631
2 *897:io_out[0] 0.00779988
3 *141:25 0.020914
4 *141:23 0.0206543
5 *141:21 0.0510435
6 *141:19 0.0510617
7 *141:13 0.0536387
8 *141:11 0.0536205
9 *141:9 0.00779988
10 *141:9 *142:12 0.000284746
11 *141:9 *142:16 0.0140193
12 *141:9 *143:17 0.000504683
13 *141:9 *143:37 0.000402726
14 *141:13 *898:wbs_adr_i[10] 0.000255057
15 *141:13 *143:39 0
16 *141:13 *544:15 0.00409899
17 *141:13 *549:15 0.0166522
18 *141:13 *552:15 0.00372828
19 *141:13 *558:19 0
20 *141:13 *561:15 0.00685845
21 *141:13 *571:17 0.00279013
22 *141:13 *573:15 0
23 *141:13 *596:15 0.00924042
24 *141:13 *597:15 0.00183436
25 *141:13 *642:21 0.00200065
26 *141:13 *788:11 5.81906e-05
27 *141:13 *789:13 0.000763756
28 *141:13 *792:19 0.00246308
29 *141:13 *795:19 0.000103479
30 *141:13 *824:19 0.000243724
31 *141:13 *829:19 0.000203165
32 *141:13 *865:19 0.00132243
33 *141:19 *866:9 2.05503e-05
34 *141:21 *143:47 0.155249
35 *141:21 *791:21 0
36 *141:21 *792:21 0
37 *141:21 *793:17 0
38 *141:21 *853:9 0.000214439
39 *141:21 *884:19 0.00291503
40 *141:25 *142:30 0.0576112
41 *897:io_in[1] *141:9 0.00225549
42 *24:9 *141:25 0.00284056
43 *26:9 *141:25 0.00826558
44 *65:9 *141:25 0.1129
45 *66:9 *141:25 0.0172161
46 *69:25 *141:25 0.00127062
47 *104:18 *141:9 0.000966661
48 *113:13 *141:13 0
49 *118:11 *141:9 0.00112279
*RES
1 *897:io_out[0] *141:9 45.7459 
2 *141:9 *141:11 8 
3 *141:11 *141:13 233.742 
4 *141:13 *141:19 23.3211 
5 *141:19 *141:21 1708.62 
6 *141:21 *141:23 15 
7 *141:23 *141:25 1509.25 
8 *141:25 io_out[7] 8.4144 
*END

*D_NET *142 0.902975
*CONN
*P io_out[8] O
*I *897:io_out[1] O *D soc_sys
*CAP
1 io_out[8] 0.000121084
2 *897:io_out[1] 0.00101143
3 *142:30 0.0235388
4 *142:28 0.0234177
5 *142:26 0.0485487
6 *142:24 0.04864
7 *142:18 0.0283305
8 *142:16 0.0377675
9 *142:12 0.0105398
10 *142:12 *143:17 0.000796539
11 *142:18 *789:13 0
12 *142:18 *791:19 0.00012386
13 *142:18 *794:19 0.00281658
14 *142:24 *857:9 0
15 *142:24 *890:9 0
16 *142:26 *898:wbs_adr_i[22] 0.000704696
17 *142:26 *898:wbs_dat_i[27] 0.000520771
18 *142:26 *541:35 0
19 *142:26 *798:13 0
20 *142:26 *808:21 0
21 *142:26 *815:15 0.00115532
22 *142:26 *819:21 0
23 *142:26 *820:21 0
24 *142:26 *845:9 0.00195399
25 *142:26 *883:21 0
26 *897:io_in[27] *142:12 5.8051e-05
27 *897:io_in[28] *142:12 0.000133004
28 *26:9 *142:30 0.0299048
29 *32:25 *142:16 0.00107548
30 *40:37 *142:16 0.00107548
31 *65:13 *142:26 0.158649
32 *65:21 *142:18 0.122538
33 *66:9 *142:30 0.0231076
34 *71:33 *142:30 0.00518055
35 *104:16 *142:12 0.000217436
36 *104:18 *142:12 0.000188171
37 *108:17 *142:30 0.139111
38 *113:13 *142:18 0.119232
39 *113:21 *142:26 0.000351611
40 *118:11 *142:12 0.000249831
41 *141:9 *142:12 0.000284746
42 *141:9 *142:16 0.0140193
43 *141:25 *142:30 0.0576112
*RES
1 *897:io_out[1] *142:12 27.9275 
2 *142:12 *142:16 41.6933 
3 *142:16 *142:18 234.601 
4 *142:18 *142:24 24.3775 
5 *142:24 *142:26 1705.76 
6 *142:26 *142:28 15 
7 *142:28 *142:30 1776.53 
8 *142:30 io_out[8] 8.24267 
*END

*D_NET *143 0.797304
*CONN
*P io_out[9] O
*I *897:io_out[2] O *D soc_sys
*CAP
1 io_out[9] 0.000947022
2 *897:io_out[2] 0.00127552
3 *143:51 0.0570588
4 *143:49 0.0561118
5 *143:47 0.0445542
6 *143:45 0.0447593
7 *143:39 0.0543598
8 *143:37 0.0615614
9 *143:19 0.00878563
10 *143:17 0.00265447
11 *143:39 *549:15 0.0014614
12 *143:39 *552:15 0.00502138
13 *143:39 *556:15 0
14 *143:39 *559:21 0
15 *143:39 *561:15 0.00316043
16 *143:39 *571:17 0.016127
17 *143:39 *597:15 0.0520488
18 *143:39 *622:14 0
19 *143:39 *639:14 0
20 *143:39 *788:11 0.00188198
21 *143:39 *824:19 0.000273391
22 *143:39 *826:19 0.00168331
23 *143:45 *850:13 0.000100169
24 *143:45 *887:9 5.50303e-05
25 *143:47 *829:9 0.000838895
26 *143:47 *837:9 0.0290099
27 *143:47 *853:9 0.00305405
28 *143:47 *865:21 0
29 *897:io_in[17] *143:19 0.00139547
30 *897:io_in[1] *143:37 1.45646e-05
31 *897:io_in[29] *143:17 3.77119e-05
32 *897:io_in[30] *143:17 0.000203613
33 *897:io_in[7] *143:37 7.80898e-05
34 *897:io_in[8] *143:37 6.90983e-05
35 *31:9 *143:51 0.00506421
36 *32:9 *143:51 0.000714654
37 *39:37 *143:39 0
38 *44:29 *143:19 0.00249539
39 *45:49 *143:19 0.00447395
40 *74:31 *143:19 0.0030344
41 *97:21 *143:19 0.000619849
42 *104:16 *143:17 0.000126812
43 *105:33 *143:51 0.0135775
44 *107:7 *143:17 0
45 *107:25 *143:51 0.160847
46 *108:9 *143:19 0.000170387
47 *112:15 *143:17 0.000644811
48 *141:9 *143:17 0.000504683
49 *141:9 *143:37 0.000402726
50 *141:13 *143:39 0
51 *141:21 *143:47 0.155249
52 *142:12 *143:17 0.000796539
*RES
1 *897:io_out[2] *143:17 28.536 
2 *143:17 *143:19 93.1107 
3 *143:19 *143:37 47.5667 
4 *143:37 *143:39 231.338 
5 *143:39 *143:45 27.1946 
6 *143:45 *143:47 1700.99 
7 *143:47 *143:49 15 
8 *143:49 *143:51 2059.65 
9 *143:51 io_out[9] 10.4752 
*END

*D_NET *528 0.507922
*CONN
*P user_clock2 I
*I *892:refclk I *D CF_ADC_SAR12
*CAP
1 user_clock2 0.00160429
2 *892:refclk 0.000302384
3 *528:19 0.0254477
4 *528:17 0.0251453
5 *528:15 0.0696964
6 *528:13 0.0696964
7 *528:11 0.0275416
8 *528:9 0.0291459
9 *528:15 *754:13 0.0364807
10 *20:17 *528:19 3.38012e-05
11 *20:40 *528:19 0.0117628
12 *31:9 *528:11 0.0104096
13 *33:9 *528:11 0
14 *35:9 *528:11 0
15 *70:18 *528:15 0.200655
*RES
1 user_clock2 *528:9 36.9439 
2 *528:9 *528:11 634.541 
3 *528:11 *528:13 8 
4 *528:13 *528:15 382.291 
5 *528:15 *528:17 8 
6 *528:17 *528:19 96.6523 
7 *528:19 *892:refclk 21.5809 
*END

*D_NET *529 0.332961
*CONN
*P user_irq[0] O
*I *897:user_irq[0] O *D soc_sys
*CAP
1 user_irq[0] 9.58152e-05
2 *897:user_irq[0] 0.00560582
3 *529:9 0.0676104
4 *529:7 0.0675146
5 *529:5 0.00560582
6 *529:9 *530:11 0.182359
7 *529:9 *631:14 0.00417027
*RES
1 *897:user_irq[0] *529:5 119.097 
2 *529:5 *529:7 8 
3 *529:7 *529:9 350.392 
4 *529:9 user_irq[0] 9.87464 
*END

*D_NET *530 0.435329
*CONN
*P user_irq[1] O
*I *897:user_irq[1] O *D soc_sys
*CAP
1 user_irq[1] 8.74317e-05
2 *897:user_irq[1] 0.00011293
3 *530:11 0.0305933
4 *530:9 0.0305058
5 *530:7 0.00546867
6 *530:5 0.0055816
7 *530:11 *531:9 0.175385
8 *530:11 *631:14 0.00523562
9 *529:9 *530:11 0.182359
*RES
1 *897:user_irq[1] *530:5 1.02536 
2 *530:5 *530:7 118.465 
3 *530:7 *530:9 8 
4 *530:9 *530:11 337.169 
5 *530:11 user_irq[1] 9.97821 
*END

*D_NET *531 0.312543
*CONN
*P user_irq[2] O
*I *897:user_irq[2] O *D soc_sys
*CAP
1 user_irq[2] 6.5784e-05
2 *897:user_irq[2] 0.00535061
3 *531:9 0.0626617
4 *531:7 0.0625959
5 *531:5 0.00535061
6 *531:5 *600:15 0.000809459
7 *531:5 *632:18 0.000324359
8 *530:11 *531:9 0.175385
*RES
1 *897:user_irq[2] *531:5 117.688 
2 *531:5 *531:7 8 
3 *531:7 *531:9 324.546 
4 *531:9 user_irq[2] 9.50179 
*END

*D_NET *540 0.49977
*CONN
*P wb_clk_i I
*I *898:wb_clk_i I *D CF_SRAM_1024x32_wb_wrapper
*I *897:wb_clk_i I *D soc_sys
*CAP
1 wb_clk_i 0.000302938
2 *898:wb_clk_i 0.000100078
3 *897:wb_clk_i 0.00632693
4 *540:58 0.00449618
5 *540:56 0.00445987
6 *540:50 0.0213658
7 *540:48 0.0216311
8 *540:33 0.00918117
9 *540:23 0.0300238
10 *540:21 0.0271695
11 *540:19 0.00651123
12 *540:17 0.00618213
13 *540:15 0.00498273
14 *540:13 0.00616378
15 *540:9 0.00148399
16 *897:wb_clk_i *897:wbs_adr_i[0] 0.00142702
17 *897:wb_clk_i *897:wbs_adr_i[1] 9.22365e-05
18 *897:wb_clk_i *897:wbs_adr_i[2] 0.000762357
19 *897:wb_clk_i *897:wbs_adr_i[3] 0.000298241
20 *897:wb_clk_i *897:wbs_dat_i[1] 0.000960527
21 *897:wb_clk_i *897:wbs_sel_i[1] 4.93791e-05
22 *897:wb_clk_i *897:wbs_sel_i[2] 9.44899e-05
23 *897:wb_clk_i *897:wbs_stb_i 0.000778205
24 *897:wb_clk_i *897:wbs_we_i 0.000625131
25 *897:wb_clk_i *541:57 0.0027625
26 *897:wb_clk_i *542:22 0.000641457
27 *897:wb_clk_i *542:28 0.0104341
28 *897:wb_clk_i *575:35 9.44899e-05
29 *897:wb_clk_i *619:8 9.44899e-05
30 *897:wb_clk_i *630:16 0.00156602
31 *540:13 *541:11 0.002671
32 *540:19 *541:21 0.000390273
33 *540:19 *541:27 0.0187624
34 *540:19 *542:34 0.000128896
35 *540:19 *640:17 0.0080363
36 *540:19 *646:30 0.0287497
37 *540:23 *635:10 0
38 *540:33 *897:wbs_adr_i[3] 0.00906623
39 *540:33 *897:wbs_adr_i[4] 9.44899e-05
40 *540:33 *897:wbs_adr_i[5] 9.44899e-05
41 *540:33 *897:wbs_adr_i[6] 0.000353779
42 *540:33 *897:wbs_dat_i[3] 0.000682075
43 *540:33 *897:wbs_dat_i[4] 0.00084758
44 *540:33 *897:wbs_dat_i[5] 0.000928326
45 *540:33 *897:wbs_sel_i[3] 0.000938755
46 *540:33 *633:8 9.44899e-05
47 *540:33 *634:16 0.00104672
48 *540:33 *635:8 9.44899e-05
49 *540:48 *541:27 0.00056794
50 *540:48 *646:30 0.000586958
51 *540:50 *897:adc_data[4] 0.00690945
52 *540:50 *898:wbs_dat_i[7] 0.000127878
53 *540:50 *898:wbs_sel_i[0] 0.00034595
54 *540:50 *646:22 0.00855221
55 *540:50 *647:31 0.00425175
56 *540:50 *647:33 0.0207555
57 *540:50 *649:17 0.00740331
58 *540:50 *649:25 0.0458083
59 *540:50 *650:35 7.0137e-05
60 *540:50 *650:45 5.90436e-05
61 *540:50 *816:17 0.000117839
62 *540:50 *819:19 0.000233525
63 *540:50 *881:13 0.00382919
64 *540:56 *821:9 4.15302e-05
65 *540:56 *822:13 0.000155456
66 *540:58 *898:wbs_stb_i 0.00176172
67 *540:58 *863:15 4.03039e-05
68 *40:25 *540:50 0.0192807
69 *43:33 *540:19 0.00114177
70 *78:19 *897:wb_clk_i 0.00225136
71 *78:21 *897:wb_clk_i 0.000313157
72 *78:21 *540:33 0.00244532
73 *84:20 *897:wb_clk_i 0.000586189
74 *104:22 *540:50 0.0877717
75 *107:21 *540:50 0.00081064
76 *109:19 *540:19 0.00019458
77 *109:21 *540:58 0.0123366
78 *112:33 *540:50 0.0164604
79 *114:27 *540:19 0.00104285
80 *118:41 *540:19 0.00525379
81 *118:41 *540:48 0.000126949
82 *118:41 *540:50 0.000132347
83 *126:20 *897:wb_clk_i 0.00126066
84 *129:35 *897:wb_clk_i 0.00270112
*RES
1 wb_clk_i *540:9 21.7529 
2 *540:9 *540:13 49.9243 
3 *540:13 *540:15 110.542 
4 *540:15 *540:17 8 
5 *540:17 *540:19 56.2557 
6 *540:19 *540:21 8 
7 *540:21 *540:23 93.352 
8 *540:23 *540:33 44.3922 
9 *540:33 *897:wb_clk_i 45.6656 
10 *540:19 *540:48 17.7771 
11 *540:48 *540:50 175.353 
12 *540:50 *540:56 25.0818 
13 *540:56 *540:58 135.927 
14 *540:58 *898:wb_clk_i 16.7193 
*END

*D_NET *541 0.403626
*CONN
*P wb_rst_i I
*I *897:wb_rst_i I *D soc_sys
*I *898:wb_rst_i I *D CF_SRAM_1024x32_wb_wrapper
*CAP
1 wb_rst_i 0.000290492
2 *897:wb_rst_i 0
3 *898:wb_rst_i 0.000229057
4 *541:57 0.00336338
5 *541:45 0.0306407
6 *541:35 0.00387508
7 *541:33 0.00366077
8 *541:27 0.0278502
9 *541:25 0.0280734
10 *541:21 0.0298517
11 *541:15 0.00742461
12 *541:13 0.00508819
13 *541:11 0.00126504
14 *541:9 0.00155553
15 *898:wb_rst_i *788:7 0
16 *541:21 *542:34 0.0107824
17 *541:21 *646:30 0.0100213
18 *541:27 *897:adc_data[4] 0.00734297
19 *541:27 *898:wbs_cyc_i 0.00113359
20 *541:27 *898:wbs_dat_i[7] 0.000425872
21 *541:27 *646:30 0.0123888
22 *541:27 *651:41 0.015753
23 *541:27 *654:27 0.0192637
24 *541:27 *655:33 0.0468567
25 *541:27 *656:29 0.0103391
26 *541:27 *658:25 0.0296081
27 *541:27 *808:19 0.00572494
28 *541:27 *817:13 0.00130927
29 *541:33 *806:17 2.12347e-06
30 *541:33 *814:19 4.07138e-06
31 *541:33 *828:15 2.33476e-05
32 *541:35 *898:wbs_cyc_i 0.00204743
33 *541:35 *808:21 7.40057e-05
34 *541:35 *819:21 0.011092
35 *541:45 *897:wbs_adr_i[1] 0
36 *541:45 *554:15 0
37 *541:45 *554:25 0.00120074
38 *541:45 *630:18 0
39 *541:57 *897:wbs_adr_i[0] 0.00349619
40 *541:57 *542:22 0.000765834
41 *541:57 *542:28 0.0043915
42 *897:wb_clk_i *541:57 0.0027625
43 *43:33 *541:27 0.0268017
44 *51:11 *541:57 0.000157097
45 *78:19 *541:57 0.000476481
46 *84:20 *541:57 0.00190242
47 *85:20 *541:57 8.64408e-05
48 *109:21 *541:27 0.00382263
49 *114:27 *541:15 0
50 *118:41 *541:21 0.00195514
51 *118:41 *541:27 0.00294146
52 *126:20 *541:57 0.00126428
53 *129:49 *541:57 0.00184886
54 *142:26 *541:35 0
55 *540:13 *541:11 0.002671
56 *540:19 *541:21 0.000390273
57 *540:19 *541:27 0.0187624
58 *540:48 *541:27 0.00056794
*RES
1 wb_rst_i *541:9 21.4007 
2 *541:9 *541:11 36.3536 
3 *541:11 *541:13 15 
4 *541:13 *541:15 112.302 
5 *541:15 *541:21 36.1059 
6 *541:21 *541:25 8.4368 
7 *541:25 *541:27 213.735 
8 *541:27 *541:33 23.3211 
9 *541:33 *541:35 124.969 
10 *541:35 *898:wb_rst_i 18.0657 
11 *541:21 *541:45 92.8443 
12 *541:45 *541:57 44.2552 
13 *541:57 *897:wb_rst_i 8 
*END

*D_NET *542 0.147206
*CONN
*P wbs_ack_o O
*I *897:wbs_ack_o O *D soc_sys
*CAP
1 wbs_ack_o 0.00160193
2 *897:wbs_ack_o 0.00276669
3 *542:38 0.00510379
4 *542:36 0.00350186
5 *542:34 0.00448096
6 *542:30 0.0322999
7 *542:28 0.0306138
8 *542:22 0.0055615
9 *542:22 *608:21 0.00108195
10 *542:28 *897:wbs_adr_i[0] 0.000434801
11 *542:28 *630:16 0.00345947
12 *542:34 *644:17 0.00460722
13 *542:34 *646:30 0.00270698
14 *542:34 *649:25 0.00870345
15 *542:34 *650:45 0.00115119
16 *897:wb_clk_i *542:22 0.000641457
17 *897:wb_clk_i *542:28 0.0104341
18 *31:23 *542:38 0
19 *32:25 *542:38 0.000667668
20 *35:25 *542:38 0
21 *36:21 *542:38 0
22 *40:35 *542:34 0.000282321
23 *56:15 *542:22 9.07644e-06
24 *76:57 *542:22 0
25 *78:19 *542:22 0.000317349
26 *85:20 *542:22 0.00135185
27 *104:22 *542:34 0.00193315
28 *109:19 *542:34 0.00269898
29 *112:31 *542:34 0.000677845
30 *118:41 *542:34 0.00263753
31 *126:16 *542:22 0.000145862
32 *129:49 *542:22 0.00126426
33 *540:19 *542:34 0.000128896
34 *541:21 *542:34 0.0107824
35 *541:57 *542:22 0.000765834
36 *541:57 *542:28 0.0043915
*RES
1 *897:wbs_ack_o *542:22 42.836 
2 *542:22 *542:28 35.9771 
3 *542:28 *542:30 92.8443 
4 *542:30 *542:34 45.2792 
5 *542:34 *542:36 8 
6 *542:36 *542:38 83.7893 
7 *542:38 wbs_ack_o 37.2339 
*END

*D_NET *543 0.107401
*CONN
*P wbs_adr_i[0] I
*I *897:wbs_adr_i[0] I *D soc_sys
*CAP
1 wbs_adr_i[0] 0.00594862
2 *897:wbs_adr_i[0] 0.00279738
3 *543:15 0.0347871
4 *543:13 0.0379384
5 *897:wbs_adr_i[0] *897:wbs_dat_i[0] 9.44899e-05
6 *897:wbs_adr_i[0] *897:wbs_dat_i[1] 0.000972206
7 *897:wbs_adr_i[0] *576:13 4.5861e-05
8 *897:wbs_adr_i[0] *608:21 8.7786e-05
9 *897:wbs_adr_i[0] *630:16 0.00111102
10 *543:13 wbs_dat_o[0] 0.00445668
11 *543:13 *554:13 2.92186e-05
12 *543:13 *576:11 0
13 *543:13 *587:13 0.00169326
14 *543:13 *602:11 0
15 *543:13 *643:13 0.00445616
16 *543:13 *645:11 0
17 *543:15 *604:9 0.000386991
18 *543:15 *619:10 0.00485097
19 *543:15 *641:15 0
20 *897:wb_clk_i *897:wbs_adr_i[0] 0.00142702
21 *75:28 *543:15 0.00142833
22 *78:19 *897:wbs_adr_i[0] 0.000652592
23 *129:49 *897:wbs_adr_i[0] 0.000305529
24 *541:57 *897:wbs_adr_i[0] 0.00349619
25 *542:28 *897:wbs_adr_i[0] 0.000434801
*RES
1 wbs_adr_i[0] *543:13 47.7959 
2 *543:13 *543:15 112.9 
3 *543:15 *897:wbs_adr_i[0] 45.8563 
*END

*D_NET *544 0.107557
*CONN
*P wbs_adr_i[10] I
*I *897:wbs_adr_i[10] I *D soc_sys
*CAP
1 wbs_adr_i[10] 0.0011906
2 *897:wbs_adr_i[10] 0.000203537
3 *544:19 0.0277867
4 *544:17 0.0275832
5 *544:15 0.00797875
6 *544:13 0.00797875
7 *544:11 0.00285363
8 *544:9 0.00404423
9 *544:9 *601:13 0.000231259
10 *544:9 *607:15 0.00227497
11 *544:11 *601:13 0.00010083
12 *544:11 *607:15 0.00152169
13 *544:15 *558:19 0.000273695
14 *544:15 *573:15 0.0160274
15 *544:15 *583:15 0.00315954
16 *78:21 *897:wbs_adr_i[10] 0.000249516
17 *141:13 *544:15 0.00409899
*RES
1 wbs_adr_i[10] *544:9 36.2396 
2 *544:9 *544:11 74.6336 
3 *544:11 *544:13 8 
4 *544:13 *544:15 43.5475 
5 *544:15 *544:17 8 
6 *544:17 *544:19 94.6213 
7 *544:19 *897:wbs_adr_i[10] 16.9576 
*END

*D_NET *545 0.104102
*CONN
*P wbs_adr_i[11] I
*I *897:wbs_adr_i[11] I *D soc_sys
*CAP
1 wbs_adr_i[11] 0.000905592
2 *897:wbs_adr_i[11] 3.89923e-05
3 *545:15 0.0340516
4 *545:13 0.0340126
5 *545:11 0.0117584
6 *545:9 0.012664
7 *545:9 *643:15 0.000254389
8 *545:11 *546:19 0
9 *545:11 *580:11 0.00975474
10 *545:11 *591:19 0.000638094
11 *545:11 *605:13 0
12 *44:21 *545:15 0
13 *78:21 *897:wbs_adr_i[11] 2.37336e-05
*RES
1 wbs_adr_i[11] *545:9 27.2539 
2 *545:9 *545:11 47.068 
3 *545:11 *545:13 8 
4 *545:13 *545:15 110.996 
5 *545:15 *897:wbs_adr_i[11] 16.0989 
*END

*D_NET *546 0.111409
*CONN
*P wbs_adr_i[12] I
*I *897:wbs_adr_i[12] I *D soc_sys
*CAP
1 wbs_adr_i[12] 0.00294031
2 *897:wbs_adr_i[12] 3.84535e-05
3 *546:23 0.0333324
4 *546:21 0.0332939
5 *546:19 0.00906751
6 *546:17 0.00906751
7 *546:15 0.00294031
8 *897:wbs_adr_i[12] *611:12 9.44899e-05
9 *546:15 *548:9 0
10 *546:15 *568:11 0.00154243
11 *546:15 *577:13 0
12 *546:15 *579:15 0.00158048
13 *546:15 *581:9 0
14 *546:19 *560:11 0.0038488
15 *546:19 *584:17 0.00646025
16 *546:19 *605:13 0.00715618
17 *546:19 *611:18 0
18 *78:21 *897:wbs_adr_i[12] 4.60027e-05
19 *545:11 *546:19 0
*RES
1 wbs_adr_i[12] *546:15 49.4232 
2 *546:15 *546:17 8 
3 *546:17 *546:19 43.4616 
4 *546:19 *546:21 8 
5 *546:21 *546:23 109.98 
6 *546:23 *897:wbs_adr_i[12] 16.1848 
*END

*D_NET *547 0.11469
*CONN
*P wbs_adr_i[13] I
*I *897:wbs_adr_i[13] I *D soc_sys
*CAP
1 wbs_adr_i[13] 7.90111e-05
2 *897:wbs_adr_i[13] 5.1914e-05
3 *547:15 0.03088
4 *547:13 0.030828
5 *547:11 0.0116356
6 *547:9 0.0116356
7 *547:7 0.00277915
8 *547:5 0.00285816
9 *897:wbs_adr_i[13] *897:wbs_dat_i[13] 9.44899e-05
10 *547:7 wbs_dat_o[12] 0
11 *547:11 *550:17 0.0223403
12 *547:11 *578:17 0
13 *547:11 *589:11 0
14 *547:11 *635:16 0.00150746
*RES
1 wbs_adr_i[13] *547:5 1.02536 
2 *547:5 *547:7 61.4179 
3 *547:7 *547:9 8 
4 *547:9 *547:11 53.4221 
5 *547:11 *547:13 8 
6 *547:13 *547:15 103.253 
7 *547:15 *897:wbs_adr_i[13] 16.1848 
*END

*D_NET *548 0.119355
*CONN
*P wbs_adr_i[14] I
*I *897:wbs_adr_i[14] I *D soc_sys
*CAP
1 wbs_adr_i[14] 0.00191403
2 *897:wbs_adr_i[14] 5.82175e-05
3 *548:15 0.0338579
4 *548:13 0.0337997
5 *548:11 0.0127568
6 *548:9 0.0146708
7 *548:11 *566:11 0
8 *548:11 *579:23 0
9 *548:11 *586:11 0.0205317
10 *548:11 *604:13 0.00171956
11 *548:11 *606:11 0
12 *548:11 *613:14 0
13 *548:11 *620:14 0
14 *78:21 *897:wbs_adr_i[14] 4.60027e-05
15 *546:15 *548:9 0
*RES
1 wbs_adr_i[14] *548:9 49.3146 
2 *548:9 *548:11 56.2557 
3 *548:11 *548:13 8 
4 *548:13 *548:15 107.061 
5 *548:15 *897:wbs_adr_i[14] 16.1848 
*END

*D_NET *549 0.148854
*CONN
*P wbs_adr_i[15] I
*I *897:wbs_adr_i[15] I *D soc_sys
*CAP
1 wbs_adr_i[15] 0.00171783
2 *897:wbs_adr_i[15] 0.000212915
3 *549:19 0.0194429
4 *549:17 0.01923
5 *549:15 0.00751104
6 *549:13 0.00751104
7 *549:11 0.00332494
8 *549:9 0.00504277
9 *897:wbs_adr_i[15] *897:wbs_dat_i[15] 0.000403145
10 *549:9 *568:21 0
11 *549:15 *552:15 0.0259209
12 *549:15 *571:17 4.50899e-05
13 *549:19 *582:15 0.0403783
14 *141:13 *549:15 0.0166522
15 *143:39 *549:15 0.0014614
*RES
1 wbs_adr_i[15] *549:9 36.9439 
2 *549:9 *549:11 69.7036 
3 *549:11 *549:13 8 
4 *549:13 *549:15 58.1448 
5 *549:15 *549:17 8 
6 *549:17 *549:19 95.5099 
7 *549:19 *897:wbs_adr_i[15] 16.7859 
*END

*D_NET *550 0.131603
*CONN
*P wbs_adr_i[16] I
*I *897:wbs_adr_i[16] I *D soc_sys
*CAP
1 wbs_adr_i[16] 0.000391619
2 *897:wbs_adr_i[16] 3.89923e-05
3 *550:21 0.0311186
4 *550:19 0.0310796
5 *550:17 0.0106856
6 *550:15 0.0106856
7 *550:13 0.00276798
8 *550:11 0.0031596
9 *550:11 *579:15 0.000827773
10 *550:13 wbs_dat_o[15] 0
11 *550:13 wbs_dat_o[16] 0
12 *550:13 *583:9 0
13 *550:13 *583:11 0
14 *550:17 *589:11 0
15 *550:17 *592:11 0.0184839
16 *550:17 *600:11 0
17 *550:17 *617:14 0
18 *78:21 *897:wbs_adr_i[16] 2.37336e-05
19 *547:11 *550:17 0.0223403
*RES
1 wbs_adr_i[16] *550:11 19.4939 
2 *550:11 *550:13 60.0093 
3 *550:13 *550:15 8 
4 *550:15 *550:17 59.8621 
5 *550:17 *550:19 8 
6 *550:19 *550:21 103.38 
7 *550:21 *897:wbs_adr_i[16] 16.0989 
*END

*D_NET *551 0.126291
*CONN
*P wbs_adr_i[17] I
*I *897:wbs_adr_i[17] I *D soc_sys
*CAP
1 wbs_adr_i[17] 0.00424435
2 *897:wbs_adr_i[17] 5.82175e-05
3 *551:21 0.0317888
4 *551:19 0.0317306
5 *551:17 0.00999751
6 *551:15 0.00999751
7 *551:13 0.00162119
8 *551:11 0.00586555
9 *551:11 wbs_dat_o[18] 0
10 *551:11 wbs_dat_o[19] 0.00385364
11 *551:11 *579:15 0.000293707
12 *551:11 *584:13 0.00156693
13 *551:11 *585:11 0.000809682
14 *551:13 wbs_dat_o[21] 0
15 *551:13 *557:7 0.00183445
16 *551:17 *567:11 0
17 *551:17 *612:14 0
18 *551:17 *613:14 0.018399
19 *551:17 *617:14 0
20 *551:17 *620:14 0.00418395
21 *43:13 *551:21 0
22 *78:21 *897:wbs_adr_i[17] 4.60027e-05
*RES
1 wbs_adr_i[17] *551:11 33.9195 
2 *551:11 *551:13 47.3321 
3 *551:13 *551:15 8 
4 *551:15 *551:17 48.5277 
5 *551:17 *551:19 8 
6 *551:19 *551:21 105.791 
7 *551:21 *897:wbs_adr_i[17] 16.1848 
*END

*D_NET *552 0.139634
*CONN
*P wbs_adr_i[18] I
*I *897:wbs_adr_i[18] I *D soc_sys
*CAP
1 wbs_adr_i[18] 0.00171896
2 *897:wbs_adr_i[18] 5.82175e-05
3 *552:19 0.0279752
4 *552:17 0.027917
5 *552:15 0.00838584
6 *552:13 0.00838584
7 *552:11 0.00329409
8 *552:9 0.00501304
9 *552:9 wbs_dat_o[17] 0
10 *552:9 *579:19 0
11 *552:15 *561:15 0.0221693
12 *78:21 *897:wbs_adr_i[18] 4.60027e-05
13 *141:13 *552:15 0.00372828
14 *143:39 *552:15 0.00502138
15 *549:15 *552:15 0.0259209
*RES
1 wbs_adr_i[18] *552:9 36.9439 
2 *552:9 *552:11 68.9993 
3 *552:11 *552:13 8 
4 *552:13 *552:15 67.5901 
5 *552:15 *552:17 8 
6 *552:17 *552:19 95.6368 
7 *552:19 *897:wbs_adr_i[18] 16.1848 
*END

*D_NET *553 0.133853
*CONN
*P wbs_adr_i[19] I
*I *897:wbs_adr_i[19] I *D soc_sys
*CAP
1 wbs_adr_i[19] 4.49146e-05
2 *897:wbs_adr_i[19] 5.82175e-05
3 *553:15 0.0304785
4 *553:13 0.0304203
5 *553:11 0.014652
6 *553:9 0.014652
7 *553:7 0.00227786
8 *553:5 0.00232278
9 *553:7 *585:13 0.00265013
10 *553:11 *555:11 0
11 *553:11 *578:17 0.00207662
12 *553:11 *589:11 0.0339393
13 *553:11 *637:14 0.000234448
14 *553:11 *638:14 0
15 *553:15 *586:15 0
16 *78:21 *897:wbs_adr_i[19] 4.60027e-05
*RES
1 wbs_adr_i[19] *553:5 1.02536 
2 *553:5 *553:7 67.7564 
3 *553:7 *553:9 8 
4 *553:9 *553:11 70.6813 
5 *553:11 *553:13 8 
6 *553:13 *553:15 102.11 
7 *553:15 *897:wbs_adr_i[19] 16.1848 
*END

*D_NET *554 0.0941111
*CONN
*P wbs_adr_i[1] I
*I *897:wbs_adr_i[1] I *D soc_sys
*CAP
1 wbs_adr_i[1] 0.00224712
2 *897:wbs_adr_i[1] 0.00194415
3 *554:25 0.0138932
4 *554:15 0.0303094
5 *554:13 0.0206074
6 *897:wbs_adr_i[1] *897:wbs_dat_i[1] 0.000279461
7 *554:13 wbs_dat_o[0] 0.000393538
8 *554:13 wbs_dat_o[1] 0.00718895
9 *554:13 *576:11 0.00024988
10 *554:13 *587:13 0.00592258
11 *554:13 *640:7 0
12 *554:13 *643:13 0.000974038
13 *554:15 *570:7 0.00117389
14 *897:wb_clk_i *897:wbs_adr_i[1] 9.22365e-05
15 *78:19 *897:wbs_adr_i[1] 4.43325e-05
16 *129:35 *897:wbs_adr_i[1] 0.00372559
17 *129:35 *554:25 0.00383535
18 *541:45 *897:wbs_adr_i[1] 0
19 *541:45 *554:15 0
20 *541:45 *554:25 0.00120074
21 *543:13 *554:13 2.92186e-05
*RES
1 wbs_adr_i[1] *554:13 36.7619 
2 *554:13 *554:15 59.7669 
3 *554:15 *554:25 46.0469 
4 *554:25 *897:wbs_adr_i[1] 25.1821 
*END

*D_NET *555 0.136177
*CONN
*P wbs_adr_i[20] I
*I *897:wbs_adr_i[20] I *D soc_sys
*CAP
1 wbs_adr_i[20] 4.49146e-05
2 *897:wbs_adr_i[20] 9.05193e-05
3 *555:15 0.0300994
4 *555:13 0.0300089
5 *555:11 0.0158681
6 *555:9 0.0158681
7 *555:7 0.00344794
8 *555:5 0.00349286
9 *555:7 *617:18 0
10 *555:11 *577:19 0.000552753
11 *555:11 *588:19 0.0363407
12 *555:11 *589:11 0
13 *555:11 *638:14 0.000271869
14 *78:21 *897:wbs_adr_i[20] 9.1227e-05
15 *553:11 *555:11 0
*RES
1 wbs_adr_i[20] *555:5 1.02536 
2 *555:5 *555:7 74.095 
3 *555:7 *555:9 8 
4 *555:9 *555:11 73.6867 
5 *555:11 *555:13 8 
6 *555:13 *555:15 100.968 
7 *555:15 *897:wbs_adr_i[20] 16.3565 
*END

*D_NET *556 0.173616
*CONN
*P wbs_adr_i[21] I
*I *897:wbs_adr_i[21] I *D soc_sys
*CAP
1 wbs_adr_i[21] 0.00172633
2 *897:wbs_adr_i[21] 0.000174362
3 *556:19 0.0361686
4 *556:17 0.0359943
5 *556:15 0.0101437
6 *556:13 0.0101437
7 *556:11 0.0029712
8 *556:9 0.00469753
9 *556:9 wbs_dat_o[20] 0
10 *556:9 *588:15 0
11 *556:11 wbs_dat_o[20] 0
12 *556:11 *588:15 0
13 *556:15 *590:15 0.0372888
14 *556:15 *607:19 0.00201869
15 *556:15 *622:14 0.0296697
16 *556:15 *639:14 0.00238151
17 *556:19 *620:10 0
18 *39:37 *556:15 0.000131525
19 *78:21 *897:wbs_adr_i[21] 0.000106129
20 *143:39 *556:15 0
*RES
1 wbs_adr_i[21] *556:9 36.9439 
2 *556:9 *556:11 61.2521 
3 *556:11 *556:13 8 
4 *556:13 *556:15 75.6616 
5 *556:15 *556:17 8 
6 *556:17 *556:19 97.0331 
7 *556:19 *897:wbs_adr_i[21] 16.4424 
*END

*D_NET *557 0.168308
*CONN
*P wbs_adr_i[22] I
*I *897:wbs_adr_i[22] I *D soc_sys
*CAP
1 wbs_adr_i[22] 4.49146e-05
2 *897:wbs_adr_i[22] 5.82175e-05
3 *557:15 0.0295418
4 *557:13 0.0294836
5 *557:11 0.00908925
6 *557:9 0.00908925
7 *557:7 0.00320288
8 *557:5 0.0032478
9 *557:11 *577:19 0
10 *557:11 *582:11 0.0188578
11 *557:11 *593:15 0.0365623
12 *557:11 *618:14 0
13 *557:11 *626:14 0.0238088
14 *31:13 *557:11 0.00343343
15 *66:13 *557:11 7.2431e-06
16 *78:21 *897:wbs_adr_i[22] 4.60027e-05
17 *551:13 *557:7 0.00183445
*RES
1 wbs_adr_i[22] *557:5 1.02536 
2 *557:5 *557:7 81.1379 
3 *557:7 *557:9 8 
4 *557:9 *557:11 79.268 
5 *557:11 *557:13 8 
6 *557:13 *557:15 99.5717 
7 *557:15 *897:wbs_adr_i[22] 16.1848 
*END

*D_NET *558 0.167867
*CONN
*P wbs_adr_i[23] I
*I *897:wbs_adr_i[23] I *D soc_sys
*CAP
1 wbs_adr_i[23] 0.00017323
2 *897:wbs_adr_i[23] 2.71705e-05
3 *558:23 0.032678
4 *558:21 0.0326508
5 *558:19 0.0122058
6 *558:17 0.0135585
7 *558:11 0.00470454
8 *558:9 0.00352506
9 *897:wbs_adr_i[23] *623:12 4.93791e-05
10 *558:11 *621:20 0.00257758
11 *558:19 *583:15 0.0212935
12 *558:19 *596:15 0.0335411
13 *558:23 *623:14 0
14 *78:21 *897:wbs_adr_i[23] 2.37336e-05
15 *113:13 *558:19 0.010585
16 *141:13 *558:19 0
17 *544:15 *558:19 0.000273695
*RES
1 wbs_adr_i[23] *558:9 3.90464 
2 *558:9 *558:11 82.7329 
3 *558:11 *558:17 33.9343 
4 *558:17 *558:19 81.7581 
5 *558:19 *558:21 8 
6 *558:21 *558:23 94.4944 
7 *558:23 *897:wbs_adr_i[23] 16.0989 
*END

*D_NET *559 0.154925
*CONN
*P wbs_adr_i[24] I
*I *897:wbs_adr_i[24] I *D soc_sys
*CAP
1 wbs_adr_i[24] 0.000158131
2 *897:wbs_adr_i[24] 5.1914e-05
3 *559:23 0.0190779
4 *559:21 0.020981
5 *559:15 0.0063268
6 *559:13 0.00437179
7 *559:11 0.0154671
8 *559:9 0.0156253
9 *897:wbs_adr_i[24] *897:wbs_dat_i[24] 9.44899e-05
10 *559:9 *592:7 0
11 *559:9 *618:18 0
12 *559:11 wbs_dat_o[22] 0.00179096
13 *559:11 wbs_dat_o[26] 0.0103223
14 *559:11 *591:17 0.000290117
15 *559:11 *595:17 0
16 *559:11 *631:14 0.0134597
17 *559:21 *622:14 0.000475131
18 *559:23 *592:15 0
19 *559:23 *624:10 0.0410645
20 *39:37 *559:21 0.00536807
21 *143:39 *559:21 0
*RES
1 wbs_adr_i[24] *559:9 11.5318 
2 *559:9 *559:11 74.3307 
3 *559:11 *559:13 8 
4 *559:13 *559:15 93.1107 
5 *559:15 *559:21 26.2312 
6 *559:21 *559:23 97.16 
7 *559:23 *897:wbs_adr_i[24] 16.1848 
*END

*D_NET *560 0.182791
*CONN
*P wbs_adr_i[25] I
*I *897:wbs_adr_i[25] I *D soc_sys
*CAP
1 wbs_adr_i[25] 0.00122322
2 *897:wbs_adr_i[25] 5.82175e-05
3 *560:15 0.0231424
4 *560:13 0.0230842
5 *560:11 0.0142469
6 *560:9 0.0154701
7 *560:9 *591:17 0
8 *560:11 *584:17 0.0216344
9 *560:11 *591:19 0
10 *560:11 *599:11 0.0379958
11 *560:11 *628:18 0
12 *560:15 *593:19 0.0420406
13 *78:21 *897:wbs_adr_i[25] 4.60027e-05
14 *546:19 *560:11 0.0038488
*RES
1 wbs_adr_i[25] *560:9 33.5925 
2 *560:9 *560:11 87.4253 
3 *560:11 *560:13 8 
4 *560:13 *560:15 109.853 
5 *560:15 *897:wbs_adr_i[25] 16.1848 
*END

*D_NET *561 0.186579
*CONN
*P wbs_adr_i[26] I
*I *897:wbs_adr_i[26] I *D soc_sys
*CAP
1 wbs_adr_i[26] 0.00171311
2 *897:wbs_adr_i[26] 0.000506535
3 *561:19 0.0191951
4 *561:17 0.0186886
5 *561:15 0.0115822
6 *561:13 0.0115822
7 *561:11 0.00334617
8 *561:9 0.00505928
9 *561:15 *597:15 0.0417607
10 *561:19 *625:10 0.0404975
11 *78:21 *897:wbs_adr_i[26] 0.000459551
12 *141:13 *561:15 0.00685845
13 *143:39 *561:15 0.00316043
14 *552:15 *561:15 0.0221693
*RES
1 wbs_adr_i[26] *561:9 36.2396 
2 *561:9 *561:11 68.295 
3 *561:11 *561:13 8 
4 *561:13 *561:15 88.7133 
5 *561:15 *561:17 8 
6 *561:17 *561:19 95.7637 
7 *561:19 *897:wbs_adr_i[26] 17.8163 
*END

*D_NET *562 0.186687
*CONN
*P wbs_adr_i[27] I
*I *897:wbs_adr_i[27] I *D soc_sys
*CAP
1 wbs_adr_i[27] 0.00156846
2 *897:wbs_adr_i[27] 0.000432733
3 *562:15 0.0230827
4 *562:13 0.0226499
5 *562:11 0.016262
6 *562:9 0.0178304
7 *562:11 *563:15 0
8 *562:11 *584:17 0
9 *562:11 *616:14 0.0175242
10 *562:11 *628:18 0.0449176
11 *562:15 *626:10 0.0419509
12 *78:21 *897:wbs_adr_i[27] 0.000467942
*RES
1 wbs_adr_i[27] *562:9 41.1118 
2 *562:9 *562:11 91.2035 
3 *562:11 *562:13 8 
4 *562:13 *562:15 108.584 
5 *562:15 *897:wbs_adr_i[27] 17.8163 
*END

*D_NET *563 0.144442
*CONN
*P wbs_adr_i[28] I
*I *897:wbs_adr_i[28] I *D soc_sys
*CAP
1 wbs_adr_i[28] 0.00188276
2 *897:wbs_adr_i[28] 5.1914e-05
3 *563:19 0.0317509
4 *563:17 0.031699
5 *563:15 0.0230379
6 *563:13 0.0249207
7 *897:wbs_adr_i[28] *718:13 9.44899e-05
8 *563:13 *595:15 0
9 *563:13 *625:24 0
10 *563:15 *566:11 0
11 *563:15 *616:14 0
12 *563:15 *621:14 0.0309044
13 *563:15 *628:18 0
14 *563:19 *628:14 0
15 *563:19 *709:17 9.97439e-05
16 *562:11 *563:15 0
*RES
1 wbs_adr_i[28] *563:13 47.9682 
2 *563:13 *563:15 96.4413 
3 *563:15 *563:17 8 
4 *563:17 *563:19 107.442 
5 *563:19 *897:wbs_adr_i[28] 16.1848 
*END

*D_NET *564 0.150286
*CONN
*P wbs_adr_i[29] I
*I *897:wbs_adr_i[29] I *D soc_sys
*CAP
1 wbs_adr_i[29] 4.49146e-05
2 *897:wbs_adr_i[29] 2.30701e-05
3 *564:15 0.0311485
4 *564:13 0.0311255
5 *564:11 0.0229985
6 *564:9 0.0229985
7 *564:7 0.00279721
8 *564:5 0.00284213
9 *897:wbs_adr_i[29] *897:wbs_dat_i[29] 4.93791e-05
10 *897:wbs_adr_i[29] *718:13 4.93791e-05
11 *564:7 wbs_dat_o[28] 0
12 *564:11 *592:11 0.0362094
13 *564:11 *600:11 0
14 *564:11 *617:14 0
15 *564:11 *632:22 0
16 *564:15 *597:19 0
*RES
1 wbs_adr_i[29] *564:5 1.02536 
2 *564:5 *564:7 58.6007 
3 *564:7 *564:9 8 
4 *564:9 *564:11 99.1891 
5 *564:11 *564:13 8 
6 *564:13 *564:15 103.634 
7 *564:15 *897:wbs_adr_i[29] 16.0989 
*END

*D_NET *565 0.0972531
*CONN
*P wbs_adr_i[2] I
*I *897:wbs_adr_i[2] I *D soc_sys
*CAP
1 wbs_adr_i[2] 0.00201772
2 *897:wbs_adr_i[2] 0.000255577
3 *565:15 0.0305761
4 *565:13 0.0323382
5 *565:13 wbs_dat_o[1] 0.0082538
6 *565:13 *598:15 0.000202865
7 *565:13 *641:13 0.0092849
8 *565:13 *643:13 0.000389559
9 *565:15 *572:9 0.000270888
10 *565:15 *641:15 0.00516916
11 *897:wb_clk_i *897:wbs_adr_i[2] 0.000762357
12 *78:19 *897:wbs_adr_i[2] 0.000373486
13 *105:27 *565:15 0.00735848
*RES
1 wbs_adr_i[2] *565:13 37.4051 
2 *565:13 *565:15 114.042 
3 *565:15 *897:wbs_adr_i[2] 17.4728 
*END

*D_NET *566 0.144104
*CONN
*P wbs_adr_i[30] I
*I *897:wbs_adr_i[30] I *D soc_sys
*CAP
1 wbs_adr_i[30] 0.00222382
2 *897:wbs_adr_i[30] 3.21501e-05
3 *566:15 0.0313667
4 *566:13 0.0313345
5 *566:11 0.0264165
6 *566:9 0.0264165
7 *566:7 0.00222382
8 *897:wbs_adr_i[30] *676:23 9.44899e-05
9 *897:wbs_adr_i[30] *718:13 9.44899e-05
10 *566:7 *599:9 0
11 *566:11 *567:11 0
12 *566:11 *586:11 0
13 *566:11 *620:14 0.0237505
14 *566:11 *621:14 0
15 *566:15 *897:wbs_dat_i[30] 0.000145862
16 *566:15 *599:15 0
17 *566:15 *676:25 4.84709e-06
18 *548:11 *566:11 0
19 *563:15 *566:11 0
*RES
1 wbs_adr_i[30] *566:7 46.4932 
2 *566:7 *566:9 8 
3 *566:9 *566:11 101.679 
4 *566:11 *566:13 8 
5 *566:13 *566:15 106.172 
6 *566:15 *897:wbs_adr_i[30] 16.1848 
*END

*D_NET *567 0.166066
*CONN
*P wbs_adr_i[31] I
*I *897:wbs_adr_i[31] I *D soc_sys
*CAP
1 wbs_adr_i[31] 4.49146e-05
2 *897:wbs_adr_i[31] 2.30701e-05
3 *567:15 0.0287104
4 *567:13 0.0286873
5 *567:11 0.0220262
6 *567:9 0.0220262
7 *567:7 0.00255151
8 *567:5 0.00259642
9 *897:wbs_adr_i[31] *676:23 4.93791e-05
10 *897:wbs_adr_i[31] *718:13 4.93791e-05
11 *567:11 *617:14 0.000578475
12 *567:11 *620:14 0
13 *567:11 *632:22 0.0537935
14 *567:15 *632:18 0.00492884
15 *551:17 *567:11 0
16 *566:11 *567:11 0
*RES
1 wbs_adr_i[31] *567:5 1.02536 
2 *567:5 *567:7 52.2621 
3 *567:7 *567:9 8 
4 *567:9 *567:11 104.942 
5 *567:11 *567:13 8 
6 *567:13 *567:15 104.903 
7 *567:15 *897:wbs_adr_i[31] 16.0989 
*END

*D_NET *568 0.125941
*CONN
*P wbs_adr_i[3] I
*I *897:wbs_adr_i[3] I *D soc_sys
*CAP
1 wbs_adr_i[3] 0.000110053
2 *897:wbs_adr_i[3] 0.00333193
3 *568:23 0.0256059
4 *568:21 0.0223431
5 *568:11 0.0108702
6 *568:9 0.0109111
7 *897:wbs_adr_i[3] *897:wbs_adr_i[6] 0.000296001
8 *897:wbs_adr_i[3] *897:wbs_dat_i[4] 0.000923264
9 *897:wbs_adr_i[3] *897:wbs_dat_i[5] 0.00198997
10 *897:wbs_adr_i[3] *634:16 0.00130985
11 *568:11 wbs_dat_o[14] 0.000357052
12 *568:11 wbs_dat_o[3] 0
13 *568:11 *578:11 0.00023922
14 *568:11 *579:15 0.000327602
15 *568:11 *601:11 0.00452868
16 *568:11 *642:13 0.000107001
17 *568:21 wbs_dat_o[14] 5.45304e-05
18 *568:21 *579:15 2.04785e-05
19 *568:21 *582:7 2.75733e-06
20 *568:23 *571:19 0.0151254
21 *568:23 *635:10 0.0162033
22 *897:wb_clk_i *897:wbs_adr_i[3] 0.000298241
23 *78:21 *897:wbs_adr_i[3] 0.000377166
24 *540:33 *897:wbs_adr_i[3] 0.00906623
25 *546:15 *568:11 0.00154243
26 *549:9 *568:21 0
*RES
1 wbs_adr_i[3] *568:9 16.6986 
2 *568:9 *568:11 229.307 
3 *568:11 *568:21 31.7721 
4 *568:21 *568:23 114.169 
5 *568:23 *897:wbs_adr_i[3] 34.5827 
*END

*D_NET *569 0.104906
*CONN
*P wbs_adr_i[4] I
*I *897:wbs_adr_i[4] I *D soc_sys
*CAP
1 wbs_adr_i[4] 0.00170427
2 *897:wbs_adr_i[4] 3.21501e-05
3 *569:19 0.0305843
4 *569:17 0.0333787
5 *569:11 0.00530163
6 *569:9 0.00417932
7 *569:9 *633:18 0
8 *569:9 *643:13 0
9 *569:19 *897:wbs_dat_i[4] 5.97712e-05
10 *569:19 *602:15 0
11 *33:21 *569:17 0.0147414
12 *38:17 *569:17 0.0147355
13 *70:16 *569:19 0
14 *78:21 *897:wbs_adr_i[4] 9.44899e-05
15 *540:33 *897:wbs_adr_i[4] 9.44899e-05
*RES
1 wbs_adr_i[4] *569:9 36.9439 
2 *569:9 *569:11 55.6179 
3 *569:11 *569:17 43.4045 
4 *569:17 *569:19 98.1755 
5 *569:19 *897:wbs_adr_i[4] 16.1848 
*END

*D_NET *570 0.0987156
*CONN
*P wbs_adr_i[5] I
*I *897:wbs_adr_i[5] I *D soc_sys
*CAP
1 wbs_adr_i[5] 7.90111e-05
2 *897:wbs_adr_i[5] 3.21501e-05
3 *570:15 0.0262327
4 *570:13 0.0325976
5 *570:7 0.0100311
6 *570:5 0.00371303
7 *570:13 *574:15 0.00906034
8 *570:15 *897:wbs_dat_i[5] 0.000145862
9 *31:13 *570:13 0.00128901
10 *66:13 *570:13 0.00288568
11 *77:17 *570:15 0
12 *78:21 *897:wbs_adr_i[5] 9.44899e-05
13 *115:14 *570:15 0.0112863
14 *540:33 *897:wbs_adr_i[5] 9.44899e-05
15 *554:15 *570:7 0.00117389
*RES
1 wbs_adr_i[5] *570:5 1.02536 
2 *570:5 *570:7 81.8421 
3 *570:7 *570:13 46.4099 
4 *570:13 *570:15 99.6987 
5 *570:15 *897:wbs_adr_i[5] 16.1848 
*END

*D_NET *571 0.104127
*CONN
*P wbs_adr_i[6] I
*I *897:wbs_adr_i[6] I *D soc_sys
*CAP
1 wbs_adr_i[6] 0.00171957
2 *897:wbs_adr_i[6] 0.00076568
3 *571:19 0.0198829
4 *571:17 0.0242308
5 *571:11 0.00820303
6 *571:9 0.00480901
7 *571:9 *619:10 0.000405034
8 *571:11 *619:10 0.000912887
9 *897:wbs_adr_i[3] *897:wbs_adr_i[6] 0.000296001
10 *78:21 *897:wbs_adr_i[6] 0.000264809
11 *116:23 *571:19 0.00819575
12 *141:13 *571:17 0.00279013
13 *143:39 *571:17 0.016127
14 *540:33 *897:wbs_adr_i[6] 0.000353779
15 *549:15 *571:17 4.50899e-05
16 *568:23 *571:19 0.0151254
*RES
1 wbs_adr_i[6] *571:9 36.9439 
2 *571:9 *571:11 67.5907 
3 *571:11 *571:17 46.0664 
4 *571:17 *571:19 95.6368 
5 *571:19 *897:wbs_adr_i[6] 19.3843 
*END

*D_NET *572 0.0974331
*CONN
*P wbs_adr_i[7] I
*I *897:wbs_adr_i[7] I *D soc_sys
*CAP
1 wbs_adr_i[7] 0.0015326
2 *897:wbs_adr_i[7] 5.82175e-05
3 *572:15 0.0302482
4 *572:13 0.0398801
5 *572:9 0.0112227
6 *572:9 wbs_dat_o[6] 0
7 *572:13 *579:23 1.88299e-05
8 *572:13 *604:13 0
9 *572:13 *605:13 0
10 *572:13 *611:18 0.00889954
11 *572:13 *616:14 0.000182534
12 *572:15 *605:15 0.00507343
13 *78:21 *897:wbs_adr_i[7] 4.60027e-05
14 *565:15 *572:9 0.000270888
*RES
1 wbs_adr_i[7] *572:9 40.8632 
2 *572:9 *572:13 44.1629 
3 *572:13 *572:15 108.584 
4 *572:15 *897:wbs_adr_i[7] 16.1848 
*END

*D_NET *573 0.110731
*CONN
*P wbs_adr_i[8] I
*I *897:wbs_adr_i[8] I *D soc_sys
*CAP
1 wbs_adr_i[8] 0.00169853
2 *897:wbs_adr_i[8] 0.000441931
3 *573:19 0.0268672
4 *573:17 0.0264253
5 *573:15 0.00551028
6 *573:11 0.00899412
7 *573:9 0.00518237
8 *573:11 *598:17 0.000503075
9 *573:15 *583:15 0.00508011
10 *573:15 *642:21 0.00202957
11 *573:19 *637:10 0.00449776
12 *78:21 *897:wbs_adr_i[8] 0.000369102
13 *113:13 *573:15 0.00710444
14 *141:13 *573:15 0
15 *544:15 *573:15 0.0160274
*RES
1 wbs_adr_i[8] *573:9 36.9439 
2 *573:9 *573:11 75.3379 
3 *573:11 *573:15 45.3651 
4 *573:15 *573:17 8 
5 *573:17 *573:19 94.4944 
6 *573:19 *897:wbs_adr_i[8] 17.4728 
*END

*D_NET *574 0.101785
*CONN
*P wbs_adr_i[9] I
*I *897:wbs_adr_i[9] I *D soc_sys
*CAP
1 wbs_adr_i[9] 0.000728508
2 *897:wbs_adr_i[9] 0.000335828
3 *574:19 0.0298972
4 *574:17 0.0295614
5 *574:15 0.00927198
6 *574:11 0.0123027
7 *574:9 0.00375922
8 *574:9 *607:13 0
9 *574:15 *577:19 0
10 *574:15 *582:11 0.00561208
11 *574:15 *638:14 0
12 *574:19 *653:18 0
13 *31:13 *574:15 0.000923625
14 *66:13 *574:15 0
15 *78:21 *897:wbs_adr_i[9] 0.000332269
16 *570:13 *574:15 0.00906034
*RES
1 wbs_adr_i[9] *574:9 15.0282 
2 *574:9 *574:11 67.9014 
3 *574:11 *574:15 48.2845 
4 *574:15 *574:17 8 
5 *574:17 *574:19 99.6987 
6 *574:19 *897:wbs_adr_i[9] 17.3011 
*END

*D_NET *575 0.0836075
*CONN
*P wbs_cyc_i I
*I *897:wbs_cyc_i I *D soc_sys
*CAP
1 wbs_cyc_i 0.00157544
2 *897:wbs_cyc_i 0
3 *575:35 0.0119566
4 *575:19 0.0294353
5 *575:17 0.0183711
6 *575:11 0.00449009
7 *575:9 0.0051731
8 *575:35 *644:19 0.00373932
9 *897:wb_clk_i *575:35 9.44899e-05
10 *43:33 *575:17 0.00371366
11 *44:25 *575:17 0.00371727
12 *76:45 *575:35 0.000486687
13 *77:15 *575:35 0.000808511
14 *78:19 *575:35 4.60027e-05
*RES
1 wbs_cyc_i *575:9 36.2396 
2 *575:9 *575:11 79.5636 
3 *575:11 *575:17 23.14 
4 *575:17 *575:19 57.8704 
5 *575:19 *575:35 46.5581 
6 *575:35 *897:wbs_cyc_i 8 
*END

*D_NET *576 0.0884222
*CONN
*P wbs_dat_i[0] I
*I *897:wbs_dat_i[0] I *D soc_sys
*CAP
1 wbs_dat_i[0] 0.00267085
2 *897:wbs_dat_i[0] 3.21501e-05
3 *576:13 0.0333175
4 *576:11 0.0359562
5 *576:11 wbs_dat_o[0] 0
6 *576:11 wbs_dat_o[1] 0.000183148
7 *576:11 wbs_dat_o[2] 0.000101859
8 *576:11 *598:15 0.00213578
9 *576:11 *641:13 0.00164923
10 *576:11 *645:11 0.0033374
11 *576:13 *642:15 0.00279858
12 *897:wbs_adr_i[0] *897:wbs_dat_i[0] 9.44899e-05
13 *897:wbs_adr_i[0] *576:13 4.5861e-05
14 *56:15 *576:13 0.00575177
15 *78:19 *897:wbs_dat_i[0] 9.44899e-05
16 *126:16 *576:13 0
17 *129:49 *576:13 3.04075e-06
18 *543:13 *576:11 0
19 *554:13 *576:11 0.00024988
*RES
1 wbs_dat_i[0] *576:11 30.6995 
2 *576:11 *576:13 114.55 
3 *576:13 *897:wbs_dat_i[0] 16.1848 
*END

*D_NET *577 0.100573
*CONN
*P wbs_dat_i[10] I
*I *897:wbs_dat_i[10] I *D soc_sys
*CAP
1 wbs_dat_i[10] 0.00178528
2 *897:wbs_dat_i[10] 5.82175e-05
3 *577:23 0.0276422
4 *577:21 0.027584
5 *577:19 0.00952649
6 *577:15 0.0127095
7 *577:13 0.00496825
8 *577:13 wbs_dat_o[10] 0
9 *577:13 *578:11 0
10 *577:13 *636:16 0.00059208
11 *577:13 *643:13 0.00120167
12 *577:19 *582:11 0
13 *577:19 *588:19 0.0023065
14 *577:19 *618:14 0.000277302
15 *577:19 *638:14 0.00666259
16 *577:23 *609:10 0.00466068
17 *78:21 *897:wbs_dat_i[10] 4.60027e-05
18 *546:15 *577:13 0
19 *555:11 *577:19 0.000552753
20 *557:11 *577:19 0
21 *574:15 *577:19 0
*RES
1 wbs_dat_i[10] *577:13 28.8152 
2 *577:13 *577:15 70.5736 
3 *577:15 *577:19 47.1683 
4 *577:19 *577:21 8 
5 *577:21 *577:23 100.587 
6 *577:23 *897:wbs_dat_i[10] 16.1848 
*END

*D_NET *578 0.111996
*CONN
*P wbs_dat_i[11] I
*I *897:wbs_dat_i[11] I *D soc_sys
*CAP
1 wbs_dat_i[11] 0.00066394
2 *897:wbs_dat_i[11] 5.82175e-05
3 *578:21 0.0308941
4 *578:19 0.0308359
5 *578:17 0.00961702
6 *578:15 0.00961702
7 *578:13 0.0029637
8 *578:11 0.00362764
9 *578:13 *602:15 0.000118182
10 *578:13 *610:18 0
11 *578:17 *589:11 0.00841809
12 *578:17 *635:16 0
13 *578:17 *637:14 0.0128209
14 *578:21 *611:14 0
15 *44:21 *578:21 0
16 *78:21 *897:wbs_dat_i[11] 4.60027e-05
17 *547:11 *578:17 0
18 *553:11 *578:17 0.00207662
19 *568:11 *578:11 0.00023922
20 *577:13 *578:11 0
*RES
1 wbs_dat_i[11] *578:11 19.4939 
2 *578:11 *578:13 65.6436 
3 *578:13 *578:15 8 
4 *578:15 *578:17 46.6387 
5 *578:17 *578:19 8 
6 *578:19 *578:21 102.364 
7 *578:21 *897:wbs_dat_i[11] 16.1848 
*END

*D_NET *579 0.116697
*CONN
*P wbs_dat_i[12] I
*I *897:wbs_dat_i[12] I *D soc_sys
*CAP
1 wbs_dat_i[12] 0.0049014
2 *897:wbs_dat_i[12] 3.84535e-05
3 *579:25 0.0331084
4 *579:23 0.0401798
5 *579:19 0.00808925
6 *579:15 0.00588085
7 *897:wbs_dat_i[12] *611:12 9.44899e-05
8 *579:15 wbs_dat_o[14] 0.000825116
9 *579:15 wbs_dat_o[15] 0
10 *579:15 *584:13 0.000624567
11 *579:19 wbs_dat_o[17] 0.00241716
12 *579:23 *586:11 0
13 *579:23 *616:14 0.0174126
14 *579:23 *621:14 0
15 *579:25 *580:17 9.90481e-06
16 *579:25 *580:19 0
17 *78:21 *897:wbs_dat_i[12] 4.60027e-05
18 *546:15 *579:15 0.00158048
19 *548:11 *579:23 0
20 *550:11 *579:15 0.000827773
21 *551:11 *579:15 0.000293707
22 *552:9 *579:19 0
23 *568:11 *579:15 0.000327602
24 *568:21 *579:15 2.04785e-05
25 *572:13 *579:23 1.88299e-05
*RES
1 wbs_dat_i[12] *579:15 35.8758 
2 *579:15 *579:19 39.8379 
3 *579:19 *579:23 41.4152 
4 *579:23 *579:25 108.33 
5 *579:25 *897:wbs_dat_i[12] 16.1848 
*END

*D_NET *580 0.11712
*CONN
*P wbs_dat_i[13] I
*I *897:wbs_dat_i[13] I *D soc_sys
*CAP
1 wbs_dat_i[13] 0.000820089
2 *897:wbs_dat_i[13] 0.000977346
3 *580:19 0.0340004
4 *580:17 0.0345812
5 *580:11 0.0117688
6 *580:9 0.0110308
7 *897:wbs_dat_i[13] *611:12 0.00041356
8 *580:9 wbs_dat_o[13] 0
9 *580:9 *612:18 0
10 *580:11 *591:19 0.00541569
11 *580:11 *614:14 0
12 *580:11 *624:14 0.00568893
13 *897:wbs_adr_i[13] *897:wbs_dat_i[13] 9.44899e-05
14 *78:21 *897:wbs_dat_i[13] 0.00256379
15 *545:11 *580:11 0.00975474
16 *579:25 *580:17 9.90481e-06
17 *579:25 *580:19 0
*RES
1 wbs_dat_i[13] *580:9 25.8454 
2 *580:9 *580:11 48.4419 
3 *580:11 *580:17 11.8304 
4 *580:17 *580:19 108.173 
5 *580:19 *897:wbs_dat_i[13] 20.9075 
*END

*D_NET *581 0.144383
*CONN
*P wbs_dat_i[14] I
*I *897:wbs_dat_i[14] I *D soc_sys
*CAP
1 wbs_dat_i[14] 0.00171783
2 *897:wbs_dat_i[14] 3.89923e-05
3 *581:19 0.0302453
4 *581:17 0.0302063
5 *581:15 0.00605397
6 *581:13 0.00605397
7 *581:11 0.00236483
8 *581:9 0.00408267
9 *581:15 *585:17 0.0225177
10 *581:15 *609:14 0.00431064
11 *31:13 *581:15 0.00614713
12 *66:13 *581:15 0.0306195
13 *78:21 *897:wbs_dat_i[14] 2.37336e-05
14 *546:15 *581:9 0
*RES
1 wbs_dat_i[14] *581:9 36.9439 
2 *581:9 *581:11 51.3921 
3 *581:11 *581:13 8 
4 *581:13 *581:15 56.8568 
5 *581:15 *581:17 8 
6 *581:17 *581:19 98.8101 
7 *581:19 *897:wbs_dat_i[14] 16.0989 
*END

*D_NET *582 0.145113
*CONN
*P wbs_dat_i[15] I
*I *897:wbs_dat_i[15] I *D soc_sys
*CAP
1 wbs_dat_i[15] 4.49146e-05
2 *897:wbs_dat_i[15] 0.000611826
3 *582:15 0.0210021
4 *582:13 0.0203903
5 *582:11 0.00887504
6 *582:9 0.00887504
7 *582:7 0.00379475
8 *582:5 0.00383967
9 *582:15 *613:10 0
10 *897:wbs_adr_i[15] *897:wbs_dat_i[15] 0.000403145
11 *31:13 *582:11 0.00249822
12 *66:13 *582:11 0.00835536
13 *78:21 *897:wbs_dat_i[15] 0.00157144
14 *549:19 *582:15 0.0403783
15 *557:11 *582:11 0.0188578
16 *568:21 *582:7 2.75733e-06
17 *574:15 *582:11 0.00561208
18 *577:19 *582:11 0
*RES
1 wbs_dat_i[15] *582:5 1.02536 
2 *582:5 *582:7 82.5464 
3 *582:7 *582:9 8 
4 *582:9 *582:11 57.0285 
5 *582:11 *582:13 8 
6 *582:13 *582:15 99.5717 
7 *582:15 *897:wbs_dat_i[15] 19.0184 
*END

*D_NET *583 0.143823
*CONN
*P wbs_dat_i[16] I
*I *897:wbs_dat_i[16] I *D soc_sys
*CAP
1 wbs_dat_i[16] 0.00170644
2 *897:wbs_dat_i[16] 5.82175e-05
3 *583:19 0.0275243
4 *583:17 0.0274661
5 *583:15 0.00784345
6 *583:13 0.00784345
7 *583:11 0.00364627
8 *583:9 0.00535271
9 *583:19 *615:10 0
10 *78:21 *897:wbs_dat_i[16] 4.60027e-05
11 *113:13 *583:15 0.0328028
12 *544:15 *583:15 0.00315954
13 *550:13 *583:9 0
14 *550:13 *583:11 0
15 *558:19 *583:15 0.0212935
16 *573:15 *583:15 0.00508011
*RES
1 wbs_dat_i[16] *583:9 36.9439 
2 *583:9 *583:11 76.0421 
3 *583:11 *583:13 8 
4 *583:13 *583:15 62.7816 
5 *583:15 *583:17 8 
6 *583:17 *583:19 94.3675 
7 *583:19 *897:wbs_dat_i[16] 16.1848 
*END

*D_NET *584 0.151105
*CONN
*P wbs_dat_i[17] I
*I *897:wbs_dat_i[17] I *D soc_sys
*CAP
1 wbs_dat_i[17] 0.00174647
2 *897:wbs_dat_i[17] 5.82175e-05
3 *584:21 0.0205225
4 *584:19 0.0204643
5 *584:17 0.0131144
6 *584:15 0.0131144
7 *584:13 0.00174647
8 *584:17 *611:18 0
9 *584:17 *616:14 0
10 *584:17 *628:18 0
11 *584:21 *616:10 0.0455415
12 *43:13 *584:21 0.00446427
13 *78:21 *897:wbs_dat_i[17] 4.60027e-05
14 *546:19 *584:17 0.00646025
15 *551:11 *584:13 0.00156693
16 *560:11 *584:17 0.0216344
17 *562:11 *584:17 0
18 *579:15 *584:13 0.000624567
*RES
1 wbs_dat_i[17] *584:13 45.1864 
2 *584:13 *584:15 8 
3 *584:15 *584:17 62.6099 
4 *584:17 *584:19 8 
5 *584:19 *584:21 109.726 
6 *584:21 *897:wbs_dat_i[17] 16.1848 
*END

*D_NET *585 0.153495
*CONN
*P wbs_dat_i[18] I
*I *897:wbs_dat_i[18] I *D soc_sys
*CAP
1 wbs_dat_i[18] 0.000438562
2 *897:wbs_dat_i[18] 5.82175e-05
3 *585:21 0.0294931
4 *585:19 0.0294349
5 *585:17 0.0074265
6 *585:15 0.0074265
7 *585:13 0.00313093
8 *585:11 0.00356949
9 *585:11 wbs_dat_o[18] 0
10 *585:13 wbs_dat_o[18] 0
11 *585:17 *594:15 0.0226449
12 *585:17 *609:14 0.00964141
13 *31:13 *585:17 0.00571708
14 *37:17 *585:17 0.00133566
15 *66:13 *585:17 0.00715449
16 *78:21 *897:wbs_dat_i[18] 4.60027e-05
17 *551:11 *585:11 0.000809682
18 *553:7 *585:13 0.00265013
19 *581:15 *585:17 0.0225177
*RES
1 wbs_dat_i[18] *585:11 19.4939 
2 *585:11 *585:13 86.0679 
3 *585:13 *585:15 8 
4 *585:15 *585:17 66.7315 
5 *585:17 *585:19 8 
6 *585:19 *585:21 98.6832 
7 *585:21 *897:wbs_dat_i[18] 16.1848 
*END

*D_NET *586 0.155012
*CONN
*P wbs_dat_i[19] I
*I *897:wbs_dat_i[19] I *D soc_sys
*CAP
1 wbs_dat_i[19] 0.0019245
2 *897:wbs_dat_i[19] 0.00020662
3 *586:15 0.0379677
4 *586:13 0.0377611
5 *586:11 0.0114353
6 *586:9 0.0133598
7 *586:11 *621:14 0.0316738
8 *78:21 *897:wbs_dat_i[19] 0.000151372
9 *548:11 *586:11 0.0205317
10 *553:15 *586:15 0
11 *566:11 *586:11 0
12 *579:23 *586:11 0
*RES
1 wbs_dat_i[19] *586:9 48.8589 
2 *586:9 *586:11 70.4237 
3 *586:11 *586:13 8 
4 *586:13 *586:15 107.188 
5 *586:15 *897:wbs_dat_i[19] 16.6141 
*END

*D_NET *587 0.0904263
*CONN
*P wbs_dat_i[1] I
*I *897:wbs_dat_i[1] I *D soc_sys
*CAP
1 wbs_dat_i[1] 0.00149531
2 *897:wbs_dat_i[1] 0.00160574
3 *587:15 0.036231
4 *587:13 0.0361206
5 *587:13 wbs_dat_o[0] 0.00270409
6 *587:15 *633:18 0.00196596
7 *587:15 *640:19 0
8 *897:wb_clk_i *897:wbs_dat_i[1] 0.000960527
9 *897:wbs_adr_i[0] *897:wbs_dat_i[1] 0.000972206
10 *897:wbs_adr_i[1] *897:wbs_dat_i[1] 0.000279461
11 *76:57 *897:wbs_dat_i[1] 0
12 *78:19 *897:wbs_dat_i[1] 0.000475638
13 *111:23 *587:15 0
14 *543:13 *587:13 0.00169326
15 *554:13 *587:13 0.00592258
*RES
1 wbs_dat_i[1] *587:13 31.6958 
2 *587:13 *587:15 112.9 
3 *587:15 *897:wbs_dat_i[1] 38.468 
*END

*D_NET *588 0.163998
*CONN
*P wbs_dat_i[20] I
*I *897:wbs_dat_i[20] I *D soc_sys
*CAP
1 wbs_dat_i[20] 0.00123847
2 *897:wbs_dat_i[20] 5.82175e-05
3 *588:23 0.0332811
4 *588:21 0.0332229
5 *588:19 0.00872465
6 *588:17 0.00872465
7 *588:15 0.00242848
8 *588:13 0.00366696
9 *588:13 wbs_dat_o[19] 0
10 *588:13 *615:14 0
11 *588:15 *589:7 0.00241556
12 *588:19 *618:14 0.0304812
13 *588:19 *627:14 0.00106263
14 *78:21 *897:wbs_dat_i[20] 4.60027e-05
15 *555:11 *588:19 0.0363407
16 *556:9 *588:15 0
17 *556:11 *588:15 0
18 *577:19 *588:19 0.0023065
*RES
1 wbs_dat_i[20] *588:13 25.2947 
2 *588:13 *588:15 69.165 
3 *588:15 *588:17 8 
4 *588:17 *588:19 71.3683 
5 *588:19 *588:21 8 
6 *588:21 *588:23 100.841 
7 *588:23 *897:wbs_dat_i[20] 16.1848 
*END

*D_NET *589 0.156437
*CONN
*P wbs_dat_i[21] I
*I *897:wbs_dat_i[21] I *D soc_sys
*CAP
1 wbs_dat_i[21] 4.49146e-05
2 *897:wbs_dat_i[21] 5.82175e-05
3 *589:15 0.0304489
4 *589:13 0.0303906
5 *589:11 0.0110464
6 *589:9 0.0110464
7 *589:7 0.00233882
8 *589:5 0.00238373
9 *589:11 *600:11 0.0238599
10 *78:21 *897:wbs_dat_i[21] 4.60027e-05
11 *547:11 *589:11 0
12 *550:17 *589:11 0
13 *553:11 *589:11 0.0339393
14 *555:11 *589:11 0
15 *578:17 *589:11 0.00841809
16 *588:15 *589:7 0.00241556
*RES
1 wbs_dat_i[21] *589:5 1.02536 
2 *589:5 *589:7 67.0521 
3 *589:7 *589:9 8 
4 *589:9 *589:11 77.3789 
5 *589:11 *589:13 8 
6 *589:13 *589:15 102.237 
7 *589:15 *897:wbs_dat_i[21] 16.1848 
*END

*D_NET *590 0.16687
*CONN
*P wbs_dat_i[22] I
*I *897:wbs_dat_i[22] I *D soc_sys
*CAP
1 wbs_dat_i[22] 0.00168412
2 *897:wbs_dat_i[22] 5.82175e-05
3 *590:19 0.0285111
4 *590:17 0.0284528
5 *590:15 0.00954806
6 *590:13 0.00954806
7 *590:11 0.00296481
8 *590:9 0.00464894
9 *590:15 *622:14 0.00225153
10 *39:37 *590:15 0.0418673
11 *78:21 *897:wbs_dat_i[22] 4.60027e-05
12 *556:15 *590:15 0.0372888
*RES
1 wbs_dat_i[22] *590:9 36.2396 
2 *590:9 *590:11 60.5479 
3 *590:11 *590:13 8 
4 *590:13 *590:15 80.0408 
5 *590:15 *590:17 8 
6 *590:17 *590:19 97.16 
7 *590:19 *897:wbs_dat_i[22] 16.1848 
*END

*D_NET *591 0.144291
*CONN
*P wbs_dat_i[23] I
*I *897:wbs_dat_i[23] I *D soc_sys
*CAP
1 wbs_dat_i[23] 0.00242264
2 *897:wbs_dat_i[23] 3.84535e-05
3 *591:23 0.0332841
4 *591:21 0.0332457
5 *591:19 0.0155731
6 *591:17 0.0179957
7 *897:wbs_dat_i[23] *623:12 9.44899e-05
8 *591:17 wbs_dat_o[19] 0
9 *591:17 wbs_dat_o[22] 0
10 *591:17 wbs_dat_o[24] 0
11 *591:17 *615:14 0
12 *591:17 *623:18 0
13 *591:19 *599:11 0
14 *591:19 *624:14 4.10764e-05
15 *591:19 *625:14 0.035206
16 *78:21 *897:wbs_dat_i[23] 4.60027e-05
17 *545:11 *591:19 0.000638094
18 *559:11 *591:17 0.000290117
19 *560:9 *591:17 0
20 *560:11 *591:19 0
21 *580:11 *591:19 0.00541569
*RES
1 wbs_dat_i[23] *591:17 48.3881 
2 *591:17 *591:19 77.6365 
3 *591:19 *591:21 8 
4 *591:21 *591:23 111.123 
5 *591:23 *897:wbs_dat_i[23] 16.1848 
*END

*D_NET *592 0.155021
*CONN
*P wbs_dat_i[24] I
*I *897:wbs_dat_i[24] I *D soc_sys
*CAP
1 wbs_dat_i[24] 4.49146e-05
2 *897:wbs_dat_i[24] 0.000528257
3 *592:15 0.0313369
4 *592:13 0.0308087
5 *592:11 0.0145806
6 *592:9 0.0145806
7 *592:7 0.0028053
8 *592:5 0.00285021
9 *897:wbs_dat_i[24] *624:8 0.000938755
10 *592:11 *600:11 0
11 *592:11 *617:14 0
12 *592:15 *624:10 0
13 *897:wbs_adr_i[24] *897:wbs_dat_i[24] 9.44899e-05
14 *78:21 *897:wbs_dat_i[24] 0.00175921
15 *550:17 *592:11 0.0184839
16 *559:9 *592:7 0
17 *559:23 *592:15 0
18 *564:11 *592:11 0.0362094
*RES
1 wbs_dat_i[24] *592:5 1.02536 
2 *592:5 *592:7 59.305 
3 *592:7 *592:9 8 
4 *592:9 *592:11 82.5309 
5 *592:11 *592:13 8 
6 *592:13 *592:15 103.634 
7 *592:15 *897:wbs_dat_i[24] 19.3619 
*END

*D_NET *593 0.171962
*CONN
*P wbs_dat_i[25] I
*I *897:wbs_dat_i[25] I *D soc_sys
*CAP
1 wbs_dat_i[25] 0.000705771
2 *897:wbs_dat_i[25] 0.000468116
3 *593:19 0.0202859
4 *593:17 0.0198178
5 *593:15 0.0179744
6 *593:13 0.0179744
7 *593:11 0.00323752
8 *593:9 0.00394329
9 *593:15 *618:14 0
10 *593:15 *626:14 0.00539669
11 *593:15 *627:14 0
12 *31:13 *593:15 0.00309107
13 *78:21 *897:wbs_dat_i[25] 0.000463916
14 *557:11 *593:15 0.0365623
15 *560:15 *593:19 0.0420406
*RES
1 wbs_dat_i[25] *593:9 15.0282 
2 *593:9 *593:11 67.9014 
3 *593:11 *593:13 8 
4 *593:13 *593:15 86.6525 
5 *593:15 *593:17 8 
6 *593:17 *593:19 99.6987 
7 *593:19 *897:wbs_dat_i[25] 17.8163 
*END

*D_NET *594 0.173086
*CONN
*P wbs_dat_i[26] I
*I *897:wbs_dat_i[26] I *D soc_sys
*CAP
1 wbs_dat_i[26] 0.00171401
2 *897:wbs_dat_i[26] 0.000300443
3 *594:19 0.0292806
4 *594:17 0.0289801
5 *594:15 0.0111962
6 *594:13 0.0111962
7 *594:11 0.00254361
8 *594:9 0.00425762
9 *594:15 *629:14 0.0424795
10 *31:13 *594:15 0.00589208
11 *37:17 *594:15 0.00314077
12 *66:13 *594:15 0.00907527
13 *78:21 *897:wbs_dat_i[26] 0.000385189
14 *585:17 *594:15 0.0226449
*RES
1 wbs_dat_i[26] *594:9 36.2396 
2 *594:9 *594:11 52.8007 
3 *594:11 *594:13 8 
4 *594:13 *594:15 90.0013 
5 *594:15 *594:17 8 
6 *594:17 *594:19 98.5563 
7 *594:19 *897:wbs_dat_i[26] 17.4728 
*END

*D_NET *595 0.147313
*CONN
*P wbs_dat_i[27] I
*I *897:wbs_dat_i[27] I *D soc_sys
*CAP
1 wbs_dat_i[27] 0.000806973
2 *897:wbs_dat_i[27] 5.82175e-05
3 *595:21 0.0335266
4 *595:19 0.0334684
5 *595:17 0.0213318
6 *595:15 0.0221388
7 *595:15 wbs_dat_o[26] 0.000645287
8 *595:15 *625:24 0.00030948
9 *595:15 *627:22 3.08663e-05
10 *595:17 *623:18 0.0349509
11 *595:17 *624:14 0
12 *595:21 *655:29 0
13 *78:21 *897:wbs_dat_i[27] 4.60027e-05
14 *559:11 *595:17 0
15 *563:13 *595:15 0
*RES
1 wbs_dat_i[27] *595:15 35.3563 
2 *595:15 *595:17 92.9208 
3 *595:17 *595:19 8 
4 *595:19 *595:21 112.646 
5 *595:21 *897:wbs_dat_i[27] 16.1848 
*END

*D_NET *596 0.150399
*CONN
*P wbs_dat_i[28] I
*I *897:wbs_dat_i[28] I *D soc_sys
*CAP
1 wbs_dat_i[28] 0.00171142
2 *897:wbs_dat_i[28] 3.21501e-05
3 *596:19 0.0276486
4 *596:17 0.0276164
5 *596:15 0.0181692
6 *596:13 0.0181692
7 *596:11 0.00369022
8 *596:9 0.00540163
9 *897:wbs_dat_i[28] *628:12 9.44899e-05
10 *897:wbs_dat_i[28] *718:13 9.44899e-05
11 *596:9 *625:24 0
12 *596:19 *628:14 0
13 *113:13 *596:15 0.00498998
14 *141:13 *596:15 0.00924042
15 *558:19 *596:15 0.0335411
*RES
1 wbs_dat_i[28] *596:9 36.2396 
2 *596:9 *596:11 74.6336 
3 *596:11 *596:13 8 
4 *596:13 *596:15 97.3 
5 *596:15 *596:17 8 
6 *596:17 *596:19 94.6213 
7 *596:19 *897:wbs_dat_i[28] 16.1848 
*END

*D_NET *597 0.186743
*CONN
*P wbs_dat_i[29] I
*I *897:wbs_dat_i[29] I *D soc_sys
*CAP
1 wbs_dat_i[29] 0.00172449
2 *897:wbs_dat_i[29] 0.000558774
3 *597:19 0.0285233
4 *597:17 0.0279645
5 *597:15 0.0110222
6 *597:13 0.0110222
7 *597:11 0.00333804
8 *597:9 0.00506252
9 *897:wbs_dat_i[29] *709:15 0.000447334
10 *897:wbs_dat_i[29] *718:13 0.00138669
11 *897:wbs_adr_i[29] *897:wbs_dat_i[29] 4.93791e-05
12 *141:13 *597:15 0.00183436
13 *143:39 *597:15 0.0520488
14 *561:15 *597:15 0.0417607
15 *564:15 *597:19 0
*RES
1 wbs_dat_i[29] *597:9 36.2396 
2 *597:9 *597:11 67.5907 
3 *597:11 *597:13 8 
4 *597:13 *597:15 96.6989 
5 *597:15 *597:17 8 
6 *597:17 *597:19 95.7637 
7 *597:19 *897:wbs_dat_i[29] 19.6008 
*END

*D_NET *598 0.0995491
*CONN
*P wbs_dat_i[2] I
*I *897:wbs_dat_i[2] I *D soc_sys
*CAP
1 wbs_dat_i[2] 0.00351509
2 *897:wbs_dat_i[2] 2.30701e-05
3 *598:17 0.0323753
4 *598:15 0.0358673
5 *897:wbs_dat_i[2] *630:16 4.93791e-05
6 *598:15 *601:11 0.00857475
7 *598:15 *641:13 0.00655939
8 *598:15 *643:13 0
9 *75:28 *598:17 0.00358896
10 *75:30 *598:17 0.00201028
11 *78:19 *897:wbs_dat_i[2] 4.93791e-05
12 *125:24 *598:17 0.00409448
13 *125:32 *598:17 0
14 *565:13 *598:15 0.000202865
15 *573:11 *598:17 0.000503075
16 *576:11 *598:15 0.00213578
*RES
1 wbs_dat_i[2] *598:15 38.1453 
2 *598:15 *598:17 114.423 
3 *598:17 *897:wbs_dat_i[2] 16.0989 
*END

*D_NET *599 0.155059
*CONN
*P wbs_dat_i[30] I
*I *897:wbs_dat_i[30] I *D soc_sys
*CAP
1 wbs_dat_i[30] 0.00123599
2 *897:wbs_dat_i[30] 0.000620261
3 *599:15 0.0329295
4 *599:13 0.0323093
5 *599:11 0.0226972
6 *599:9 0.0239332
7 *897:wbs_dat_i[30] *676:23 0.000938755
8 *897:wbs_dat_i[30] *709:15 0.000658821
9 *897:wbs_dat_i[30] *718:13 0.000938755
10 *897:wbs_dat_i[30] *735:15 0.0006552
11 *599:11 *625:14 0
12 *599:11 *628:18 0
13 *560:11 *599:11 0.0379958
14 *566:7 *599:9 0
15 *566:15 *897:wbs_dat_i[30] 0.000145862
16 *566:15 *599:15 0
17 *591:19 *599:11 0
*RES
1 wbs_dat_i[30] *599:9 33.8204 
2 *599:9 *599:11 100.134 
3 *599:11 *599:13 8 
4 *599:13 *599:15 109.599 
5 *599:15 *897:wbs_dat_i[30] 35.5112 
*END

*D_NET *600 0.17243
*CONN
*P wbs_dat_i[31] I
*I *897:wbs_dat_i[31] I *D soc_sys
*CAP
1 wbs_dat_i[31] 4.49146e-05
2 *897:wbs_dat_i[31] 0.000197418
3 *600:15 0.0208068
4 *600:13 0.0206094
5 *600:11 0.0276371
6 *600:9 0.0276371
7 *600:7 0.0032002
8 *600:5 0.00324511
9 *897:wbs_dat_i[31] *676:23 0.000671182
10 *897:wbs_dat_i[31] *718:13 0.000671182
11 *600:15 *632:18 0.0430403
12 *531:5 *600:15 0.000809459
13 *550:17 *600:11 0
14 *564:11 *600:11 0
15 *589:11 *600:11 0.0238599
16 *592:11 *600:11 0
*RES
1 wbs_dat_i[31] *600:5 1.02536 
2 *600:5 *600:7 66.3479 
3 *600:7 *600:9 8 
4 *600:9 *600:11 104.685 
5 *600:11 *600:13 8 
6 *600:13 *600:15 102.364 
7 *600:15 *897:wbs_dat_i[31] 17.3011 
*END

*D_NET *601 0.103128
*CONN
*P wbs_dat_i[3] I
*I *897:wbs_dat_i[3] I *D soc_sys
*CAP
1 wbs_dat_i[3] 0.00601491
2 *897:wbs_dat_i[3] 0.000144449
3 *601:13 0.0326927
4 *601:11 0.0385631
5 *601:11 *643:13 0
6 *601:13 *607:15 0.00032266
7 *78:21 *897:wbs_dat_i[3] 0.000682075
8 *119:14 *601:13 0.0105905
9 *540:33 *897:wbs_dat_i[3] 0.000682075
10 *544:9 *601:13 0.000231259
11 *544:11 *601:13 0.00010083
12 *568:11 *601:11 0.00452868
13 *598:15 *601:11 0.00857475
*RES
1 wbs_dat_i[3] *601:11 40.3554 
2 *601:11 *601:13 114.423 
3 *601:13 *897:wbs_dat_i[3] 17.3011 
*END

*D_NET *602 0.0996496
*CONN
*P wbs_dat_i[4] I
*I *897:wbs_dat_i[4] I *D soc_sys
*CAP
1 wbs_dat_i[4] 0.00668809
2 *897:wbs_dat_i[4] 0.00071729
3 *602:15 0.0332194
4 *602:13 0.0325021
5 *602:11 0.00668809
6 *897:wbs_dat_i[4] *634:16 0.000926871
7 *602:11 wbs_dat_o[4] 0
8 *602:11 *634:24 0
9 *602:11 *636:16 0.00900298
10 *602:11 *643:13 0
11 *897:wbs_adr_i[3] *897:wbs_dat_i[4] 0.000923264
12 *70:16 *602:15 0.00710838
13 *78:21 *897:wbs_dat_i[4] 0.00084758
14 *540:33 *897:wbs_dat_i[4] 0.00084758
15 *543:13 *602:11 0
16 *569:19 *897:wbs_dat_i[4] 5.97712e-05
17 *569:19 *602:15 0
18 *578:13 *602:15 0.000118182
*RES
1 wbs_dat_i[4] *602:11 43.8499 
2 *602:11 *602:13 8 
3 *602:13 *602:15 112.265 
4 *602:15 *897:wbs_dat_i[4] 35.8547 
*END

*D_NET *603 0.0931058
*CONN
*P wbs_dat_i[5] I
*I *897:wbs_dat_i[5] I *D soc_sys
*CAP
1 wbs_dat_i[5] 7.90111e-05
2 *897:wbs_dat_i[5] 0.00137633
3 *603:15 0.0332073
4 *603:13 0.0395155
5 *603:7 0.0100458
6 *603:5 0.00244024
7 *603:13 *606:11 0
8 *603:13 *610:14 0.00228615
9 *603:13 *635:16 0
10 *603:15 *634:16 1.72004e-05
11 *897:wbs_adr_i[3] *897:wbs_dat_i[5] 0.00198997
12 *78:21 *897:wbs_dat_i[5] 0.000928326
13 *115:14 *897:wbs_dat_i[5] 0.000145862
14 *540:33 *897:wbs_dat_i[5] 0.000928326
15 *570:15 *897:wbs_dat_i[5] 0.000145862
*RES
1 wbs_dat_i[5] *603:5 1.02536 
2 *603:5 *603:7 52.2621 
3 *603:7 *603:13 41.6872 
4 *603:13 *603:15 104.649 
5 *603:15 *897:wbs_dat_i[5] 38.0872 
*END

*D_NET *604 0.0917401
*CONN
*P wbs_dat_i[6] I
*I *897:wbs_dat_i[6] I *D soc_sys
*CAP
1 wbs_dat_i[6] 0.00176701
2 *897:wbs_dat_i[6] 5.82175e-05
3 *604:15 0.0312365
4 *604:13 0.0411785
5 *604:9 0.0117672
6 *604:13 *606:11 0
7 *604:15 *897:adc_data[4] 6.0636e-05
8 *604:15 *636:10 0
9 *71:25 *604:15 0
10 *78:21 *897:wbs_dat_i[6] 4.60027e-05
11 *80:22 *604:15 0.00351949
12 *543:15 *604:9 0.000386991
13 *548:11 *604:13 0.00171956
14 *572:13 *604:13 0
*RES
1 wbs_dat_i[6] *604:9 46.9739 
2 *604:9 *604:13 41.8445 
3 *604:13 *604:15 107.442 
4 *604:15 *897:wbs_dat_i[6] 16.1848 
*END

*D_NET *605 0.0974736
*CONN
*P wbs_dat_i[7] I
*I *897:wbs_dat_i[7] I *D soc_sys
*CAP
1 wbs_dat_i[7] 0.00115891
2 *897:wbs_dat_i[7] 0.000335828
3 *605:15 0.0315574
4 *605:13 0.0409611
5 *605:9 0.0108984
6 *605:9 *637:18 0
7 *605:13 *611:18 0
8 *78:21 *897:wbs_dat_i[7] 0.000332269
9 *545:11 *605:13 0
10 *546:19 *605:13 0.00715618
11 *572:13 *605:13 0
12 *572:15 *605:15 0.00507343
*RES
1 wbs_dat_i[7] *605:9 33.1161 
2 *605:9 *605:13 43.3901 
3 *605:13 *605:15 109.853 
4 *605:15 *897:wbs_dat_i[7] 17.3011 
*END

*D_NET *606 0.118092
*CONN
*P wbs_dat_i[8] I
*I *897:wbs_dat_i[8] I *D soc_sys
*CAP
1 wbs_dat_i[8] 0.00212143
2 *897:wbs_dat_i[8] 0.000219186
3 *606:15 0.0225459
4 *606:13 0.0223267
5 *606:11 0.0109558
6 *606:7 0.0130773
7 *897:wbs_dat_i[8] *638:8 0.00041356
8 *606:7 *638:18 0
9 *606:11 *612:14 0
10 *606:11 *613:14 0.00391239
11 *606:15 *638:10 0.0424784
12 *78:21 *897:wbs_dat_i[8] 4.11979e-05
13 *548:11 *606:11 0
14 *603:13 *606:11 0
15 *604:13 *606:11 0
*RES
1 wbs_dat_i[8] *606:7 46.4932 
2 *606:7 *606:11 46.4813 
3 *606:11 *606:13 8 
4 *606:13 *606:15 106.172 
5 *606:15 *897:wbs_dat_i[8] 16.9576 
*END

*D_NET *607 0.114808
*CONN
*P wbs_dat_i[9] I
*I *897:wbs_dat_i[9] I *D soc_sys
*CAP
1 wbs_dat_i[9] 0.00077223
2 *897:wbs_dat_i[9] 3.89923e-05
3 *607:23 0.0263159
4 *607:21 0.0262769
5 *607:19 0.00592937
6 *607:15 0.00896003
7 *607:13 0.00380289
8 *607:13 *636:16 0.00019735
9 *607:13 *643:13 0.0011718
10 *607:15 *639:18 0
11 *607:19 *639:14 0.00941109
12 *607:23 *639:10 0.00460819
13 *39:37 *607:19 0.0211615
14 *78:21 *897:wbs_dat_i[9] 2.37336e-05
15 *544:9 *607:15 0.00227497
16 *544:11 *607:15 0.00152169
17 *556:15 *607:19 0.00201869
18 *574:9 *607:13 0
19 *601:13 *607:15 0.00032266
*RES
1 wbs_dat_i[9] *607:13 25.0073 
2 *607:13 *607:15 89.5893 
3 *607:15 *607:19 48.5421 
4 *607:19 *607:21 8 
5 *607:21 *607:23 97.16 
6 *607:23 *897:wbs_dat_i[9] 16.0989 
*END

*D_NET *608 0.0889981
*CONN
*P wbs_dat_o[0] O
*I *897:wbs_dat_o[0] O *D soc_sys
*CAP
1 wbs_dat_o[0] 0.00128348
2 *897:wbs_dat_o[0] 0.00183792
3 *608:27 0.0311388
4 *608:25 0.0330593
5 *608:21 0.00504189
6 *608:25 *897:wbs_we_i 0.0052567
7 *897:wbs_adr_i[0] *608:21 8.7786e-05
8 *76:57 *608:21 0
9 *78:19 *608:21 0.000351738
10 *121:25 *608:25 0.000827269
11 *121:25 *608:27 0.000181429
12 *129:35 *608:21 0.000354841
13 *129:49 *608:21 0.000940618
14 *542:22 *608:21 0.00108195
15 *543:13 wbs_dat_o[0] 0.00445668
16 *554:13 wbs_dat_o[0] 0.000393538
17 *576:11 wbs_dat_o[0] 0
18 *587:13 wbs_dat_o[0] 0.00270409
*RES
1 *897:wbs_dat_o[0] *608:21 40.3449 
2 *608:21 *608:25 17.4795 
3 *608:25 *608:27 95.5771 
4 *608:27 wbs_dat_o[0] 30.1288 
*END

*D_NET *609 0.11803
*CONN
*P wbs_dat_o[10] O
*I *897:wbs_dat_o[10] O *D soc_sys
*CAP
1 wbs_dat_o[10] 0.00165397
2 *897:wbs_dat_o[10] 0.000300445
3 *609:18 0.00403452
4 *609:16 0.00238055
5 *609:14 0.00585762
6 *609:12 0.00585762
7 *609:10 0.0268491
8 *609:8 0.0271495
9 *31:13 *609:14 0.0028621
10 *34:21 *609:14 0.0146741
11 *35:19 *609:18 5.5925e-05
12 *35:21 *609:14 6.52316e-05
13 *37:17 *609:14 0.00509005
14 *66:13 *609:14 0.00225012
15 *78:21 *609:8 0.000336296
16 *577:13 wbs_dat_o[10] 0
17 *577:23 *609:10 0.00466068
18 *581:15 *609:14 0.00431064
19 *585:17 *609:14 0.00964141
*RES
1 *897:wbs_dat_o[10] *609:8 17.3011 
2 *609:8 *609:10 98.5563 
3 *609:10 *609:12 8 
4 *609:12 *609:14 45.1789 
5 *609:14 *609:16 8 
6 *609:16 *609:18 52.8007 
7 *609:18 wbs_dat_o[10] 36.2396 
*END

*D_NET *610 0.121423
*CONN
*P wbs_dat_o[11] O
*I *897:wbs_dat_o[11] O *D soc_sys
*CAP
1 wbs_dat_o[11] 7.90111e-05
2 *897:wbs_dat_o[11] 3.84535e-05
3 *610:18 0.00248861
4 *610:16 0.0024096
5 *610:14 0.00842514
6 *610:12 0.00842514
7 *610:10 0.0316647
8 *610:8 0.0317032
9 *610:8 *611:12 9.44899e-05
10 *610:10 *611:14 0
11 *610:14 *612:14 0.0224288
12 *610:14 *617:14 0.0113332
13 *610:14 *635:16 0
14 *78:21 *610:8 4.60027e-05
15 *578:13 *610:18 0
16 *603:13 *610:14 0.00228615
*RES
1 *897:wbs_dat_o[11] *610:8 16.1848 
2 *610:8 *610:10 104.776 
3 *610:10 *610:12 8 
4 *610:12 *610:14 49.2147 
5 *610:14 *610:16 8 
6 *610:16 *610:18 52.9664 
7 *610:18 wbs_dat_o[11] 1.02536 
*END

*D_NET *611 0.110912
*CONN
*P wbs_dat_o[12] O
*I *897:wbs_dat_o[12] O *D soc_sys
*CAP
1 wbs_dat_o[12] 0.00145293
2 *897:wbs_dat_o[12] 0.00178158
3 *611:18 0.0116061
4 *611:16 0.0101531
5 *611:14 0.0332074
6 *611:12 0.034989
7 *611:18 *616:14 0.00713618
8 *897:wbs_adr_i[12] *611:12 9.44899e-05
9 *897:wbs_dat_i[12] *611:12 9.44899e-05
10 *897:wbs_dat_i[13] *611:12 0.00041356
11 *78:21 *611:12 0.000989267
12 *546:19 *611:18 0
13 *547:7 wbs_dat_o[12] 0
14 *572:13 *611:18 0.00889954
15 *578:21 *611:14 0
16 *584:17 *611:18 0
17 *605:13 *611:18 0
18 *610:8 *611:12 9.44899e-05
19 *610:10 *611:14 0
*RES
1 *897:wbs_dat_o[12] *611:12 23.3789 
2 *611:12 *611:14 108.584 
3 *611:14 *611:16 8 
4 *611:16 *611:18 44.8355 
5 *611:18 wbs_dat_o[12] 39.9311 
*END

*D_NET *612 0.11787
*CONN
*P wbs_dat_o[13] O
*I *897:wbs_dat_o[13] O *D soc_sys
*CAP
1 wbs_dat_o[13] 0.000201207
2 *897:wbs_dat_o[13] 5.82175e-05
3 *612:18 0.00250524
4 *612:16 0.00230403
5 *612:14 0.0119991
6 *612:12 0.0119991
7 *612:10 0.0315523
8 *612:8 0.0316105
9 *612:14 *613:14 0
10 *612:14 *617:14 0.00316568
11 *78:21 *612:8 4.60027e-05
12 *551:17 *612:14 0
13 *580:9 wbs_dat_o[13] 0
14 *580:9 *612:18 0
15 *606:11 *612:14 0
16 *610:14 *612:14 0.0224288
*RES
1 *897:wbs_dat_o[13] *612:8 16.1848 
2 *612:8 *612:10 104.903 
3 *612:10 *612:12 8 
4 *612:12 *612:14 55.2253 
5 *612:14 *612:16 8 
6 *612:16 *612:18 50.1493 
7 *612:18 wbs_dat_o[13] 3.90464 
*END

*D_NET *613 0.130247
*CONN
*P wbs_dat_o[14] O
*I *897:wbs_dat_o[14] O *D soc_sys
*CAP
1 wbs_dat_o[14] 0.000970202
2 *897:wbs_dat_o[14] 5.82175e-05
3 *613:18 0.00316595
4 *613:16 0.00219575
5 *613:14 0.00803919
6 *613:12 0.00803919
7 *613:10 0.031874
8 *613:8 0.0319322
9 *613:14 *620:14 0.0203786
10 *613:18 wbs_dat_o[15] 0
11 *78:21 *613:8 4.60027e-05
12 *548:11 *613:14 0
13 *551:17 *613:14 0.018399
14 *568:11 wbs_dat_o[14] 0.000357052
15 *568:21 wbs_dat_o[14] 5.45304e-05
16 *579:15 wbs_dat_o[14] 0.000825116
17 *582:15 *613:10 0
18 *606:11 *613:14 0.00391239
19 *612:14 *613:14 0
*RES
1 *897:wbs_dat_o[14] *613:8 16.1848 
2 *613:8 *613:10 105.918 
3 *613:10 *613:12 8 
4 *613:12 *613:14 53.8515 
5 *613:14 *613:16 8 
6 *613:16 *613:18 47.3321 
7 *613:18 wbs_dat_o[14] 21.5077 
*END

*D_NET *614 0.131619
*CONN
*P wbs_dat_o[15] O
*I *897:wbs_dat_o[15] O *D soc_sys
*CAP
1 wbs_dat_o[15] 0.00130498
2 *897:wbs_dat_o[15] 5.82175e-05
3 *614:14 0.0130907
4 *614:12 0.0117857
5 *614:10 0.0368459
6 *614:8 0.0369041
7 wbs_dat_o[15] wbs_dat_o[16] 0.00039094
8 wbs_dat_o[15] *636:16 0.000345924
9 *614:14 *615:14 0.0308461
10 *614:14 *624:14 0
11 *78:21 *614:8 4.60027e-05
12 *550:13 wbs_dat_o[15] 0
13 *579:15 wbs_dat_o[15] 0
14 *580:11 *614:14 0
15 *613:18 wbs_dat_o[15] 0
*RES
1 *897:wbs_dat_o[15] *614:8 16.1848 
2 *614:8 *614:10 112.265 
3 *614:10 *614:12 8 
4 *614:12 *614:14 57.2861 
5 *614:14 wbs_dat_o[15] 39.7609 
*END

*D_NET *615 0.14077
*CONN
*P wbs_dat_o[16] O
*I *897:wbs_dat_o[16] O *D soc_sys
*CAP
1 wbs_dat_o[16] 0.00043998
2 *897:wbs_dat_o[16] 0.000203537
3 *615:14 0.00958128
4 *615:12 0.0091413
5 *615:10 0.0341037
6 *615:8 0.0343072
7 *615:10 *654:23 0
8 *615:14 wbs_dat_o[18] 0
9 *615:14 wbs_dat_o[21] 0
10 *615:14 *623:18 0.0212588
11 *615:14 *624:14 0
12 *615:14 *636:16 0.000248163
13 wbs_dat_o[15] wbs_dat_o[16] 0.00039094
14 *78:21 *615:8 0.000249516
15 *550:13 wbs_dat_o[16] 0
16 *583:19 *615:10 0
17 *588:13 *615:14 0
18 *591:17 *615:14 0
19 *614:14 *615:14 0.0308461
*RES
1 *897:wbs_dat_o[16] *615:8 16.9576 
2 *615:8 *615:10 112.392 
3 *615:10 *615:12 8 
4 *615:12 *615:14 62.524 
5 *615:14 wbs_dat_o[16] 19.0304 
*END

*D_NET *616 0.160555
*CONN
*P wbs_dat_o[17] O
*I *897:wbs_dat_o[17] O *D soc_sys
*CAP
1 wbs_dat_o[17] 0.0010673
2 *897:wbs_dat_o[17] 0.000468116
3 *616:14 0.0123207
4 *616:12 0.0112534
5 *616:10 0.0221498
6 *616:8 0.0226179
7 *78:21 *616:8 0.000463916
8 *552:9 wbs_dat_o[17] 0
9 *562:11 *616:14 0.0175242
10 *563:15 *616:14 0
11 *572:13 *616:14 0.000182534
12 *579:19 wbs_dat_o[17] 0.00241716
13 *579:23 *616:14 0.0174126
14 *584:17 *616:14 0
15 *584:21 *616:10 0.0455415
16 *611:18 *616:14 0.00713618
*RES
1 *897:wbs_dat_o[17] *616:8 17.8163 
2 *616:8 *616:10 108.457 
3 *616:10 *616:12 8 
4 *616:12 *616:14 64.4131 
5 *616:14 wbs_dat_o[17] 41.8161 
*END

*D_NET *617 0.141597
*CONN
*P wbs_dat_o[18] O
*I *897:wbs_dat_o[18] O *D soc_sys
*CAP
1 wbs_dat_o[18] 0.00178021
2 *897:wbs_dat_o[18] 5.82175e-05
3 *617:18 0.00403866
4 *617:16 0.00225844
5 *617:14 0.0140671
6 *617:12 0.0140671
7 *617:10 0.0380922
8 *617:8 0.0381504
9 wbs_dat_o[18] wbs_dat_o[19] 0
10 *617:14 *632:22 0.0139614
11 *78:21 *617:8 4.60027e-05
12 *550:17 *617:14 0
13 *551:11 wbs_dat_o[18] 0
14 *551:17 *617:14 0
15 *555:7 *617:18 0
16 *564:11 *617:14 0
17 *567:11 *617:14 0.000578475
18 *585:11 wbs_dat_o[18] 0
19 *585:13 wbs_dat_o[18] 0
20 *592:11 *617:14 0
21 *610:14 *617:14 0.0113332
22 *612:14 *617:14 0.00316568
23 *615:14 wbs_dat_o[18] 0
*RES
1 *897:wbs_dat_o[18] *617:8 16.1848 
2 *617:8 *617:10 104.649 
3 *617:10 *617:12 8 
4 *617:12 *617:14 64.9283 
5 *617:14 *617:16 8 
6 *617:16 *617:18 48.0364 
7 *617:18 wbs_dat_o[18] 27.5833 
*END

*D_NET *618 0.135527
*CONN
*P wbs_dat_o[19] O
*I *897:wbs_dat_o[19] O *D soc_sys
*CAP
1 wbs_dat_o[19] 0.00377886
2 *897:wbs_dat_o[19] 5.82175e-05
3 *618:18 0.00732587
4 *618:16 0.00354701
5 *618:14 0.0120346
6 *618:12 0.0120346
7 *618:10 0.0298908
8 *618:8 0.029949
9 wbs_dat_o[19] wbs_dat_o[21] 0
10 wbs_dat_o[19] wbs_dat_o[22] 0.0021128
11 *618:14 *627:14 0.000136953
12 *618:18 wbs_dat_o[23] 0
13 wbs_dat_o[18] wbs_dat_o[19] 0
14 *78:21 *618:8 4.60027e-05
15 *551:11 wbs_dat_o[19] 0.00385364
16 *557:11 *618:14 0
17 *559:9 *618:18 0
18 *577:19 *618:14 0.000277302
19 *588:13 wbs_dat_o[19] 0
20 *588:19 *618:14 0.0304812
21 *591:17 wbs_dat_o[19] 0
22 *593:15 *618:14 0
*RES
1 *897:wbs_dat_o[19] *618:8 16.1848 
2 *618:8 *618:10 100.714 
3 *618:10 *618:12 8 
4 *618:12 *618:14 58.2307 
5 *618:14 *618:16 8 
6 *618:16 *618:18 74.7993 
7 *618:18 wbs_dat_o[19] 32.0037 
*END

*D_NET *619 0.0943586
*CONN
*P wbs_dat_o[1] O
*I *897:wbs_dat_o[1] O *D soc_sys
*CAP
1 wbs_dat_o[1] 0.00216055
2 *897:wbs_dat_o[1] 3.84535e-05
3 *619:10 0.0349087
4 *619:8 0.0327866
5 wbs_dat_o[1] *641:13 0.000264189
6 wbs_dat_o[1] *643:13 0.0008133
7 *619:10 *630:18 0
8 *897:wb_clk_i *619:8 9.44899e-05
9 *75:28 *619:10 0.00145154
10 *78:19 *619:8 4.60027e-05
11 *543:15 *619:10 0.00485097
12 *554:13 wbs_dat_o[1] 0.00718895
13 *565:13 wbs_dat_o[1] 0.0082538
14 *571:9 *619:10 0.000405034
15 *571:11 *619:10 0.000912887
16 *576:11 wbs_dat_o[1] 0.000183148
*RES
1 *897:wbs_dat_o[1] *619:8 16.1848 
2 *619:8 *619:10 113.915 
3 *619:10 wbs_dat_o[1] 37.2895 
*END

*D_NET *620 0.142427
*CONN
*P wbs_dat_o[20] O
*I *897:wbs_dat_o[20] O *D soc_sys
*CAP
1 wbs_dat_o[20] 0.00219169
2 *897:wbs_dat_o[20] 5.82175e-05
3 *620:16 0.00219169
4 *620:14 0.0131172
5 *620:12 0.0131172
6 *620:10 0.0316669
7 *620:8 0.0317251
8 *78:21 *620:8 4.60027e-05
9 *548:11 *620:14 0
10 *551:17 *620:14 0.00418395
11 *556:9 wbs_dat_o[20] 0
12 *556:11 wbs_dat_o[20] 0
13 *556:19 *620:10 0
14 *566:11 *620:14 0.0237505
15 *567:11 *620:14 0
16 *613:14 *620:14 0.0203786
*RES
1 *897:wbs_dat_o[20] *620:8 16.1848 
2 *620:8 *620:10 106.045 
3 *620:10 *620:12 8 
4 *620:12 *620:14 74.8888 
5 *620:14 *620:16 8 
6 *620:16 wbs_dat_o[20] 47.1975 
*END

*D_NET *621 0.159958
*CONN
*P wbs_dat_o[21] O
*I *897:wbs_dat_o[21] O *D soc_sys
*CAP
1 wbs_dat_o[21] 0.00163284
2 *897:wbs_dat_o[21] 5.82175e-05
3 *621:20 0.00264449
4 *621:14 0.0113018
5 *621:12 0.0102902
6 *621:10 0.0343851
7 *621:8 0.0344433
8 wbs_dat_o[19] wbs_dat_o[21] 0
9 *78:21 *621:8 4.60027e-05
10 *551:13 wbs_dat_o[21] 0
11 *558:11 *621:20 0.00257758
12 *563:15 *621:14 0.0309044
13 *566:11 *621:14 0
14 *579:23 *621:14 0
15 *586:11 *621:14 0.0316738
16 *615:14 wbs_dat_o[21] 0
*RES
1 *897:wbs_dat_o[21] *621:8 16.1848 
2 *621:8 *621:10 107.315 
3 *621:10 *621:12 8 
4 *621:12 *621:14 73.6867 
5 *621:14 *621:20 49.2464 
6 *621:20 wbs_dat_o[21] 19.2308 
*END

*D_NET *622 0.13982
*CONN
*P wbs_dat_o[22] O
*I *897:wbs_dat_o[22] O *D soc_sys
*CAP
1 wbs_dat_o[22] 0.00280249
2 *897:wbs_dat_o[22] 3.89923e-05
3 *622:22 0.0068181
4 *622:20 0.00475163
5 *622:14 0.0153902
6 *622:12 0.0146541
7 *622:10 0.0261573
8 *622:8 0.0261963
9 wbs_dat_o[22] wbs_dat_o[26] 3.9353e-05
10 wbs_dat_o[22] *625:24 0.00196786
11 *622:10 *623:14 0.00460406
12 *622:22 wbs_dat_o[26] 6.43972e-05
13 wbs_dat_o[19] wbs_dat_o[22] 0.0021128
14 *39:37 *622:14 1.08122e-05
15 *78:21 *622:8 2.37336e-05
16 *143:39 *622:14 0
17 *556:15 *622:14 0.0296697
18 *559:11 wbs_dat_o[22] 0.00179096
19 *559:21 *622:14 0.000475131
20 *590:15 *622:14 0.00225153
21 *591:17 wbs_dat_o[22] 0
*RES
1 *897:wbs_dat_o[22] *622:8 16.0989 
2 *622:8 *622:10 96.9061 
3 *622:10 *622:12 8 
4 *622:12 *622:14 67.4184 
5 *622:14 *622:20 21.0293 
6 *622:20 *622:22 84.8457 
7 *622:22 wbs_dat_o[22] 30.8671 
*END

*D_NET *623 0.153891
*CONN
*P wbs_dat_o[23] O
*I *897:wbs_dat_o[23] O *D soc_sys
*CAP
1 wbs_dat_o[23] 0.000502355
2 *897:wbs_dat_o[23] 0.00149328
3 *623:18 0.0129571
4 *623:16 0.0124547
5 *623:14 0.0315198
6 *623:12 0.0330131
7 *623:18 *624:14 0
8 *897:wbs_adr_i[23] *623:12 4.93791e-05
9 *897:wbs_dat_i[23] *623:12 9.44899e-05
10 *78:21 *623:12 0.000992524
11 *558:23 *623:14 0
12 *591:17 *623:18 0
13 *595:17 *623:18 0.0349509
14 *615:14 *623:18 0.0212588
15 *618:18 wbs_dat_o[23] 0
16 *622:10 *623:14 0.00460406
*RES
1 *897:wbs_dat_o[23] *623:12 21.8333 
2 *623:12 *623:14 112.392 
3 *623:14 *623:16 8 
4 *623:16 *623:18 77.98 
5 *623:18 wbs_dat_o[23] 18.8025 
*END

*D_NET *624 0.170715
*CONN
*P wbs_dat_o[24] O
*I *897:wbs_dat_o[24] O *D soc_sys
*CAP
1 wbs_dat_o[24] 0.000828459
2 *897:wbs_dat_o[24] 0.000838281
3 *624:14 0.0176578
4 *624:12 0.0168293
5 *624:10 0.0239938
6 *624:8 0.0248321
7 *624:14 *625:14 0.0374596
8 *897:wbs_dat_i[24] *624:8 0.000938755
9 *78:21 *624:8 0.000542692
10 *559:23 *624:10 0.0410645
11 *580:11 *624:14 0.00568893
12 *591:17 wbs_dat_o[24] 0
13 *591:19 *624:14 4.10764e-05
14 *592:15 *624:10 0
15 *595:17 *624:14 0
16 *614:14 *624:14 0
17 *615:14 *624:14 0
18 *623:18 *624:14 0
*RES
1 *897:wbs_dat_o[24] *624:8 19.8771 
2 *624:8 *624:10 111.377 
3 *624:10 *624:12 8 
4 *624:12 *624:14 82.4451 
5 *624:14 wbs_dat_o[24] 25.6175 
*END

*D_NET *625 0.192206
*CONN
*P wbs_dat_o[25] O
*I *897:wbs_dat_o[25] O *D soc_sys
*CAP
1 wbs_dat_o[25] 9.58152e-05
2 *897:wbs_dat_o[25] 5.82175e-05
3 *625:24 0.00252345
4 *625:14 0.0137807
5 *625:12 0.0113531
6 *625:10 0.0239124
7 *625:8 0.0239707
8 *625:24 wbs_dat_o[26] 0.000429408
9 *625:24 *627:22 0.00059533
10 wbs_dat_o[22] *625:24 0.00196786
11 *78:21 *625:8 4.60027e-05
12 *561:19 *625:10 0.0404975
13 *563:13 *625:24 0
14 *591:19 *625:14 0.035206
15 *595:15 *625:24 0.00030948
16 *596:9 *625:24 0
17 *599:11 *625:14 0
18 *624:14 *625:14 0.0374596
*RES
1 *897:wbs_dat_o[25] *625:8 16.1848 
2 *625:8 *625:10 111.25 
3 *625:10 *625:12 8 
4 *625:12 *625:14 81.5864 
5 *625:14 *625:24 49.7079 
6 *625:24 wbs_dat_o[25] 1.87464 
*END

*D_NET *626 0.180616
*CONN
*P wbs_dat_o[26] O
*I *897:wbs_dat_o[26] O *D soc_sys
*CAP
1 wbs_dat_o[26] 0.00264276
2 *897:wbs_dat_o[26] 5.82175e-05
3 *626:18 0.00654867
4 *626:16 0.0039059
5 *626:14 0.0119949
6 *626:12 0.0119949
7 *626:10 0.0198934
8 *626:8 0.0199516
9 wbs_dat_o[26] *627:22 0.00279787
10 wbs_dat_o[26] *631:14 0.00323554
11 *626:14 *627:14 0
12 wbs_dat_o[22] wbs_dat_o[26] 3.9353e-05
13 *31:13 *626:14 0.00420582
14 *66:13 *626:14 0.0106828
15 *78:21 *626:8 4.60027e-05
16 *557:11 *626:14 0.0238088
17 *559:11 wbs_dat_o[26] 0.0103223
18 *562:15 *626:10 0.0419509
19 *593:15 *626:14 0.00539669
20 *595:15 wbs_dat_o[26] 0.000645287
21 *622:22 wbs_dat_o[26] 6.43972e-05
22 *625:24 wbs_dat_o[26] 0.000429408
*RES
1 *897:wbs_dat_o[26] *626:8 16.1848 
2 *626:8 *626:10 99.4448 
3 *626:10 *626:12 8 
4 *626:12 *626:14 73.0856 
5 *626:14 *626:16 8 
6 *626:16 *626:18 81.1379 
7 *626:18 wbs_dat_o[26] 37.5553 
*END

*D_NET *627 0.138362
*CONN
*P wbs_dat_o[27] O
*I *897:wbs_dat_o[27] O *D soc_sys
*CAP
1 wbs_dat_o[27] 8.67596e-05
2 *897:wbs_dat_o[27] 3.48918e-05
3 *627:22 0.00927003
4 *627:20 0.00918327
5 *627:18 0.00357465
6 *627:16 0.00357465
7 *627:14 0.0147616
8 *627:12 0.0147616
9 *627:10 0.0295807
10 *627:8 0.0296155
11 *627:8 *718:13 4.93791e-05
12 *627:22 *631:14 0.0192448
13 wbs_dat_o[26] *627:22 0.00279787
14 *588:19 *627:14 0.00106263
15 *593:15 *627:14 0
16 *595:15 *627:22 3.08663e-05
17 *618:14 *627:14 0.000136953
18 *625:24 *627:22 0.00059533
19 *626:14 *627:14 0
*RES
1 *897:wbs_dat_o[27] *627:8 16.0989 
2 *627:8 *627:10 100.587 
3 *627:10 *627:12 8 
4 *627:12 *627:14 49.5581 
5 *627:14 *627:16 8 
6 *627:16 *627:18 76.2079 
7 *627:18 *627:20 8 
8 *627:20 *627:22 45.3077 
9 *627:22 wbs_dat_o[27] 9.97821 
*END

*D_NET *628 0.155978
*CONN
*P wbs_dat_o[28] O
*I *897:wbs_dat_o[28] O *D soc_sys
*CAP
1 wbs_dat_o[28] 0.00153985
2 *897:wbs_dat_o[28] 0.00066068
3 *628:18 0.0218406
4 *628:16 0.0203008
5 *628:14 0.0321834
6 *628:12 0.0328441
7 *628:12 *709:15 0.00038241
8 *628:12 *718:13 0.00120081
9 *628:14 *709:17 1.30358e-05
10 *897:wbs_dat_i[28] *628:12 9.44899e-05
11 *560:11 *628:18 0
12 *562:11 *628:18 0.0449176
13 *563:15 *628:18 0
14 *563:19 *628:14 0
15 *564:7 wbs_dat_o[28] 0
16 *584:17 *628:18 0
17 *596:19 *628:14 0
18 *599:11 *628:18 0
*RES
1 *897:wbs_dat_o[28] *628:12 19.2573 
2 *628:12 *628:14 108.584 
3 *628:14 *628:16 8 
4 *628:16 *628:18 94.8099 
5 *628:18 wbs_dat_o[28] 40.4075 
*END

*D_NET *629 0.173891
*CONN
*P wbs_dat_o[29] O
*I *897:wbs_dat_o[29] O *D soc_sys
*CAP
1 wbs_dat_o[29] 0.00175572
2 *897:wbs_dat_o[29] 0.00023822
3 *629:18 0.00439251
4 *629:16 0.00263679
5 *629:14 0.0130712
6 *629:12 0.0130712
7 *629:10 0.0288591
8 *629:8 0.0290973
9 *629:8 *718:13 0.000671182
10 *629:8 *735:15 0.000328243
11 *629:10 *735:17 0.00011472
12 *31:13 *629:14 0.00553395
13 *33:21 *629:14 0.0285415
14 *37:17 *629:14 2.55744e-05
15 *66:13 *629:14 0.00307457
16 *594:15 *629:14 0.0424795
*RES
1 *897:wbs_dat_o[29] *629:8 17.3011 
2 *629:8 *629:10 98.4293 
3 *629:10 *629:12 8 
4 *629:12 *629:14 99.7043 
5 *629:14 *629:16 8 
6 *629:16 *629:18 53.505 
7 *629:18 wbs_dat_o[29] 36.2396 
*END

*D_NET *630 0.0926481
*CONN
*P wbs_dat_o[2] O
*I *897:wbs_dat_o[2] O *D soc_sys
*CAP
1 wbs_dat_o[2] 0.00493753
2 *897:wbs_dat_o[2] 0.00180263
3 *630:18 0.0401969
4 *630:16 0.037062
5 wbs_dat_o[2] *641:13 0.000101859
6 *630:18 *635:18 0.00136456
7 *897:wb_clk_i *630:16 0.00156602
8 *897:wbs_adr_i[0] *630:16 0.00111102
9 *897:wbs_dat_i[2] *630:16 4.93791e-05
10 *78:19 *630:16 0.000744372
11 *125:32 *630:16 0.000150535
12 *541:45 *630:18 0
13 *542:28 *630:16 0.00345947
14 *576:11 wbs_dat_o[2] 0.000101859
15 *619:10 *630:18 0
*RES
1 *897:wbs_dat_o[2] *630:16 42.0371 
2 *630:16 *630:18 113.915 
3 *630:18 wbs_dat_o[2] 21.36 
*END

*D_NET *631 0.154738
*CONN
*P wbs_dat_o[30] O
*I *897:wbs_dat_o[30] O *D soc_sys
*CAP
1 wbs_dat_o[30] 6.64561e-05
2 *897:wbs_dat_o[30] 0.000120271
3 *631:14 0.020193
4 *631:12 0.0201265
5 *631:10 0.0336957
6 *631:8 0.033816
7 *631:8 *676:23 0.000687044
8 *631:8 *718:13 0.000687044
9 wbs_dat_o[26] *631:14 0.00323554
10 *529:9 *631:14 0.00417027
11 *530:11 *631:14 0.00523562
12 *559:11 *631:14 0.0134597
13 *627:22 *631:14 0.0192448
*RES
1 *897:wbs_dat_o[30] *631:8 17.3011 
2 *631:8 *631:10 114.169 
3 *631:10 *631:12 8 
4 *631:12 *631:14 102.366 
5 *631:14 wbs_dat_o[30] 9.50179 
*END

*D_NET *632 0.201697
*CONN
*P wbs_dat_o[31] O
*I *897:wbs_dat_o[31] O *D soc_sys
*CAP
1 wbs_dat_o[31] 4.52344e-05
2 *897:wbs_dat_o[31] 0.000766552
3 *632:26 0.00262759
4 *632:24 0.00258236
5 *632:22 0.0189882
6 *632:20 0.0189882
7 *632:18 0.018579
8 *632:16 0.0193456
9 *632:16 *676:23 0.000863933
10 *632:16 *709:15 0.000996233
11 *632:16 *718:13 0.000863933
12 *632:16 *735:15 0.000992612
13 *632:16 *768:14 9.07644e-06
14 *531:5 *632:18 0.000324359
15 *564:11 *632:22 0
16 *567:11 *632:22 0.0537935
17 *567:15 *632:18 0.00492884
18 *600:15 *632:18 0.0430403
19 *617:14 *632:22 0.0139614
*RES
1 *897:wbs_dat_o[31] *632:16 36.0264 
2 *632:16 *632:18 104.395 
3 *632:18 *632:20 8 
4 *632:20 *632:22 103.397 
5 *632:22 *632:24 8 
6 *632:24 *632:26 52.9664 
7 *632:26 wbs_dat_o[31] 1.02536 
*END

*D_NET *633 0.113181
*CONN
*P wbs_dat_o[3] O
*I *897:wbs_dat_o[3] O *D soc_sys
*CAP
1 wbs_dat_o[3] 0.000472041
2 *897:wbs_dat_o[3] 3.21501e-05
3 *633:18 0.00323696
4 *633:16 0.00917189
5 *633:10 0.0253939
6 *633:8 0.0190191
7 *633:10 *634:18 0.00470162
8 *633:10 *643:15 0.0428915
9 *633:16 *635:16 0
10 *633:16 *637:14 0.00602541
11 *633:18 *643:13 8.15834e-05
12 *78:21 *633:8 9.44899e-05
13 *540:33 *633:8 9.44899e-05
14 *568:11 wbs_dat_o[3] 0
15 *569:9 *633:18 0
16 *587:15 *633:18 0.00196596
*RES
1 *897:wbs_dat_o[3] *633:8 16.1848 
2 *633:8 *633:10 102.491 
3 *633:10 *633:16 40.2275 
4 *633:16 *633:18 63.7068 
5 *633:18 wbs_dat_o[3] 38.9693 
*END

*D_NET *634 0.0929173
*CONN
*P wbs_dat_o[4] O
*I *897:wbs_dat_o[4] O *D soc_sys
*CAP
1 wbs_dat_o[4] 0.000893541
2 *897:wbs_dat_o[4] 0.00224697
3 *634:24 0.00736003
4 *634:18 0.0365613
5 *634:16 0.0323418
6 *634:18 *643:15 0
7 *897:wbs_adr_i[3] *634:16 0.00130985
8 *897:wbs_dat_i[4] *634:16 0.000926871
9 *69:17 *634:18 0.00446469
10 *78:21 *634:16 0.00104672
11 *540:33 *634:16 0.00104672
12 *602:11 wbs_dat_o[4] 0
13 *602:11 *634:24 0
14 *603:15 *634:16 1.72004e-05
15 *633:10 *634:18 0.00470162
*RES
1 *897:wbs_dat_o[4] *634:16 41.4771 
2 *634:16 *634:18 110.996 
3 *634:18 *634:24 36.5352 
4 *634:24 wbs_dat_o[4] 17.3689 
*END

*D_NET *635 0.0931121
*CONN
*P wbs_dat_o[5] O
*I *897:wbs_dat_o[5] O *D soc_sys
*CAP
1 wbs_dat_o[5] 7.90111e-05
2 *897:wbs_dat_o[5] 3.21501e-05
3 *635:18 0.00274467
4 *635:16 0.012416
5 *635:10 0.0341471
6 *635:8 0.0244289
7 *78:21 *635:8 9.44899e-05
8 *540:23 *635:10 0
9 *540:33 *635:8 9.44899e-05
10 *547:11 *635:16 0.00150746
11 *568:23 *635:10 0.0162033
12 *578:17 *635:16 0
13 *603:13 *635:16 0
14 *610:14 *635:16 0
15 *630:18 *635:18 0.00136456
16 *633:16 *635:16 0
*RES
1 *897:wbs_dat_o[5] *635:8 16.1848 
2 *635:8 *635:10 103.761 
3 *635:10 *635:16 48.3848 
4 *635:16 *635:18 59.305 
5 *635:18 wbs_dat_o[5] 1.02536 
*END

*D_NET *636 0.0985837
*CONN
*P wbs_dat_o[6] O
*I *897:wbs_dat_o[6] O *D soc_sys
*CAP
1 wbs_dat_o[6] 0.000528475
2 *897:wbs_dat_o[6] 0.000206575
3 *636:16 0.00886286
4 *636:10 0.0406689
5 *636:8 0.0325411
6 *636:16 *643:13 0
7 wbs_dat_o[15] *636:16 0.000345924
8 *78:21 *636:8 0.000200284
9 *81:14 *636:10 0.00518898
10 *572:9 wbs_dat_o[6] 0
11 *577:13 *636:16 0.00059208
12 *602:11 *636:16 0.00900298
13 *604:15 *636:10 0
14 *607:13 *636:16 0.00019735
15 *615:14 *636:16 0.000248163
*RES
1 *897:wbs_dat_o[6] *636:8 16.7859 
2 *636:8 *636:10 112.646 
3 *636:10 *636:16 49.8445 
4 *636:16 wbs_dat_o[6] 10.5746 
*END

*D_NET *637 0.103104
*CONN
*P wbs_dat_o[7] O
*I *897:wbs_dat_o[7] O *D soc_sys
*CAP
1 wbs_dat_o[7] 7.90111e-05
2 *897:wbs_dat_o[7] 3.89923e-05
3 *637:18 0.00310839
4 *637:16 0.00302938
5 *637:14 0.00825779
6 *637:10 0.0366037
7 *637:8 0.0283849
8 *78:21 *637:8 2.37336e-05
9 *553:11 *637:14 0.000234448
10 *573:19 *637:10 0.00449776
11 *578:17 *637:14 0.0128209
12 *605:9 *637:18 0
13 *633:16 *637:14 0.00602541
*RES
1 *897:wbs_dat_o[7] *637:8 16.0989 
2 *637:8 *637:10 102.237 
3 *637:10 *637:14 45.8803 
4 *637:14 *637:16 8 
5 *637:16 *637:18 67.0521 
6 *637:18 wbs_dat_o[7] 1.02536 
*END

*D_NET *638 0.119919
*CONN
*P wbs_dat_o[8] O
*I *897:wbs_dat_o[8] O *D soc_sys
*CAP
1 wbs_dat_o[8] 5.98922e-05
2 *897:wbs_dat_o[8] 0.000613694
3 *638:18 0.00339027
4 *638:16 0.00333038
5 *638:14 0.0100471
6 *638:10 0.0303048
7 *638:8 0.0208715
8 *897:wbs_dat_i[8] *638:8 0.00041356
9 *78:21 *638:8 0.00147484
10 *553:11 *638:14 0
11 *555:11 *638:14 0.000271869
12 *574:15 *638:14 0
13 *577:19 *638:14 0.00666259
14 *606:7 *638:18 0
15 *606:15 *638:10 0.0424784
*RES
1 *897:wbs_dat_o[8] *638:8 18.8467 
2 *638:8 *638:10 100.968 
3 *638:10 *638:14 46.052 
4 *638:14 *638:16 8 
5 *638:16 *638:18 74.095 
6 *638:18 wbs_dat_o[8] 1.02536 
*END

*D_NET *639 0.099881
*CONN
*P wbs_dat_o[9] O
*I *897:wbs_dat_o[9] O *D soc_sys
*CAP
1 wbs_dat_o[9] 0.00165309
2 *897:wbs_dat_o[9] 0.000441931
3 *639:18 0.00454626
4 *639:16 0.00289317
5 *639:14 0.0101378
6 *639:12 0.0101378
7 *639:10 0.0263646
8 *639:8 0.0268066
9 *39:37 *639:14 0.000129868
10 *78:21 *639:8 0.000369102
11 *143:39 *639:14 0
12 *556:15 *639:14 0.00238151
13 *607:15 *639:18 0
14 *607:19 *639:14 0.00941109
15 *607:23 *639:10 0.00460819
*RES
1 *897:wbs_dat_o[9] *639:8 17.4728 
2 *639:8 *639:10 96.9061 
3 *639:10 *639:12 8 
4 *639:12 *639:14 42.0877 
5 *639:14 *639:16 8 
6 *639:16 *639:18 61.9564 
7 *639:18 wbs_dat_o[9] 36.2396 
*END

*D_NET *640 0.0924581
*CONN
*P wbs_sel_i[0] I
*I *897:wbs_sel_i[0] I *D soc_sys
*CAP
1 wbs_sel_i[0] 4.49146e-05
2 *897:wbs_sel_i[0] 3.21501e-05
3 *640:19 0.0245765
4 *640:17 0.0262155
5 *640:11 0.0047462
6 *640:9 0.00312322
7 *640:7 0.00219154
8 *640:5 0.00218836
9 *43:33 *640:17 0.00781514
10 *78:19 *897:wbs_sel_i[0] 9.44899e-05
11 *111:23 *640:19 0.0121231
12 *118:41 *640:17 0.00117616
13 *129:35 *897:wbs_sel_i[0] 9.44899e-05
14 *540:19 *640:17 0.0080363
15 *554:13 *640:7 0
16 *587:15 *640:19 0
*RES
1 wbs_sel_i[0] *640:5 1.02536 
2 *640:5 *640:7 49.1136 
3 *640:7 *640:9 1.09786 
4 *640:9 *640:11 66.6793 
5 *640:11 *640:17 30.9539 
6 *640:17 *640:19 93.7328 
7 *640:19 *897:wbs_sel_i[0] 16.1848 
*END

*D_NET *641 0.0934457
*CONN
*P wbs_sel_i[1] I
*I *897:wbs_sel_i[1] I *D soc_sys
*CAP
1 wbs_sel_i[1] 0.00220881
2 *897:wbs_sel_i[1] 2.71705e-05
3 *641:15 0.0327881
4 *641:13 0.0349697
5 *641:13 *642:13 0.000350024
6 wbs_dat_o[1] *641:13 0.000264189
7 wbs_dat_o[2] *641:13 0.000101859
8 *897:wb_clk_i *897:wbs_sel_i[1] 4.93791e-05
9 *78:19 *897:wbs_sel_i[1] 2.37336e-05
10 *543:15 *641:15 0
11 *565:13 *641:13 0.0092849
12 *565:15 *641:15 0.00516916
13 *576:11 *641:13 0.00164923
14 *598:15 *641:13 0.00655939
*RES
1 wbs_sel_i[1] *641:13 37.0443 
2 *641:13 *641:15 114.169 
3 *641:15 *897:wbs_sel_i[1] 16.0989 
*END

*D_NET *642 0.0903589
*CONN
*P wbs_sel_i[2] I
*I *897:wbs_sel_i[2] I *D soc_sys
*CAP
1 wbs_sel_i[2] 0.000694598
2 *897:wbs_sel_i[2] 3.84535e-05
3 *642:23 0.0305277
4 *642:21 0.0345856
5 *642:15 0.00897994
6 *642:13 0.00557818
7 *897:wb_clk_i *897:wbs_sel_i[2] 9.44899e-05
8 *78:19 *897:wbs_sel_i[2] 4.60027e-05
9 *113:13 *642:21 0.0025282
10 *141:13 *642:21 0.00200065
11 *568:11 *642:13 0.000107001
12 *573:15 *642:21 0.00202957
13 *576:13 *642:15 0.00279858
14 *641:13 *642:13 0.000350024
*RES
1 wbs_sel_i[2] *642:13 44.8107 
2 *642:13 *642:15 108.429 
3 *642:15 *642:21 36.6211 
4 *642:21 *642:23 94.7483 
5 *642:23 *897:wbs_sel_i[2] 16.1848 
*END

*D_NET *643 0.115907
*CONN
*P wbs_sel_i[3] I
*I *897:wbs_sel_i[3] I *D soc_sys
*CAP
1 wbs_sel_i[3] 0.00586619
2 *897:wbs_sel_i[3] 0.000266858
3 *643:15 0.0250314
4 *643:13 0.0306307
5 wbs_dat_o[1] *643:13 0.0008133
6 *78:21 *897:wbs_sel_i[3] 0.000938755
7 *540:33 *897:wbs_sel_i[3] 0.000938755
8 *543:13 *643:13 0.00445616
9 *545:9 *643:15 0.000254389
10 *554:13 *643:13 0.000974038
11 *565:13 *643:13 0.000389559
12 *569:9 *643:13 0
13 *577:13 *643:13 0.00120167
14 *598:15 *643:13 0
15 *601:11 *643:13 0
16 *602:11 *643:13 0
17 *607:13 *643:13 0.0011718
18 *633:10 *643:15 0.0428915
19 *633:18 *643:13 8.15834e-05
20 *634:18 *643:15 0
21 *636:16 *643:13 0
*RES
1 wbs_sel_i[3] *643:13 46.5764 
2 *643:13 *643:15 113.534 
3 *643:15 *897:wbs_sel_i[3] 17.8163 
*END

*D_NET *644 0.0814652
*CONN
*P wbs_stb_i I
*I *897:wbs_stb_i I *D soc_sys
*CAP
1 wbs_stb_i 0.00157544
2 *897:wbs_stb_i 0.000168921
3 *644:19 0.0267607
4 *644:17 0.0276166
5 *644:11 0.00490307
6 *644:9 0.00545375
7 *644:19 *645:13 0
8 *897:wb_clk_i *897:wbs_stb_i 0.000778205
9 *40:35 *644:17 0.0028813
10 *78:19 *897:wbs_stb_i 0.000385189
11 *84:20 *644:19 0.000947029
12 *104:22 *644:17 0.00091044
13 *109:21 *644:17 0.000227208
14 *118:41 *644:17 0.000510779
15 *542:34 *644:17 0.00460722
16 *575:35 *644:19 0.00373932
*RES
1 wbs_stb_i *644:9 36.2396 
2 *644:9 *644:11 84.4936 
3 *644:11 *644:17 24.5997 
4 *644:17 *644:19 92.9712 
5 *644:19 *897:wbs_stb_i 17.4728 
*END

*D_NET *645 0.0867116
*CONN
*P wbs_we_i I
*I *897:wbs_we_i I *D soc_sys
*CAP
1 wbs_we_i 0.00201738
2 *897:wbs_we_i 0.00518755
3 *645:13 0.0354797
4 *645:11 0.0323095
5 *897:wb_clk_i *897:wbs_we_i 0.000625131
6 *71:23 *645:13 0.000756636
7 *78:19 *897:wbs_we_i 0.000305288
8 *80:20 *897:wbs_we_i 0.000509871
9 *84:20 *645:13 0.000657816
10 *85:16 *897:wbs_we_i 4.53187e-05
11 *121:23 *897:wbs_we_i 0.000180957
12 *129:51 *897:wbs_we_i 4.24394e-05
13 *543:13 *645:11 0
14 *576:11 *645:11 0.0033374
15 *608:25 *897:wbs_we_i 0.0052567
16 *644:19 *645:13 0
*RES
1 wbs_we_i *645:11 25.9298 
2 *645:11 *645:13 98.0485 
3 *645:13 *897:wbs_we_i 36.3064 
*END

*D_NET *646 0.522599
*CONN
*I *897:adc_data[0] I *D soc_sys
*I *892:data_out[0] O *D CF_ADC_SAR12
*CAP
1 *897:adc_data[0] 0.000105506
2 *892:data_out[0] 0.00277302
3 *646:30 0.0129484
4 *646:28 0.0130341
5 *646:22 0.0102039
6 *646:20 0.0100126
7 *646:18 0.00339701
8 *646:16 0.00373081
9 *646:10 0.020307
10 *646:8 0.0227462
11 *646:8 *892:dft_outc[1] 0.000807908
12 *646:8 *647:21 0.00963375
13 *646:8 *648:17 0.000755896
14 *646:8 *731:17 0.0121166
15 *646:8 *776:35 0.000315556
16 *646:10 *648:21 0.0662837
17 *646:10 *701:9 0.0208358
18 *646:10 *719:9 0.0106508
19 *646:10 *769:9 0.000553853
20 *646:18 *650:25 0.00207732
21 *646:18 *829:21 0.0195593
22 *646:18 *869:9 0.0195615
23 *646:22 *647:31 0.000696803
24 *646:22 *649:17 0.0423658
25 *646:22 *649:25 0.00286145
26 *646:28 *897:adc_data[8] 0
27 *646:30 *897:adc_data[4] 0.00512905
28 *646:30 *650:45 0.044731
29 *646:30 *655:33 0.0071575
30 *40:25 *646:22 0.055558
31 *43:25 *646:22 0.00068782
32 *109:21 *646:22 0
33 *109:21 *646:30 0.00416424
34 *114:29 *646:30 0.0194346
35 *118:41 *646:30 0.00464077
36 *118:45 *646:30 0.00975554
37 *540:19 *646:30 0.0287497
38 *540:48 *646:30 0.000586958
39 *540:50 *646:22 0.00855221
40 *541:21 *646:30 0.0100213
41 *541:27 *646:30 0.0123888
42 *542:34 *646:30 0.00270698
*RES
1 *892:data_out[0] *646:8 38.8349 
2 *646:8 *646:10 848.633 
3 *646:10 *646:16 34.4329 
4 *646:16 *646:18 251.223 
5 *646:18 *646:20 15 
6 *646:20 *646:22 619.502 
7 *646:22 *646:28 25.7861 
8 *646:28 *646:30 111.339 
9 *646:30 *897:adc_data[0] 9.48107 
*END

*D_NET *647 0.309216
*CONN
*I *897:adc_data[10] I *D soc_sys
*I *892:data_out[10] O *D CF_ADC_SAR12
*CAP
1 *897:adc_data[10] 0
2 *892:data_out[10] 0.00285971
3 *647:33 0.00950822
4 *647:31 0.0106171
5 *647:25 0.0216221
6 *647:23 0.0205132
7 *647:21 0.00285971
8 *647:21 *892:dft_outc[1] 0.000855029
9 *647:21 *648:17 0.00879496
10 *647:21 *657:7 0.00013256
11 *647:21 *713:13 4.51815e-05
12 *647:21 *726:13 4.51815e-05
13 *647:21 *776:35 0.000301979
14 *647:25 *665:9 0.00179497
15 *647:25 *670:9 0.0667999
16 *647:25 *687:9 0.0768967
17 *647:25 *770:9 0
18 *647:25 *791:9 0
19 *647:31 *897:adc_data[4] 0.000568664
20 *647:31 *648:41 0.000718745
21 *647:31 *649:17 0.000794668
22 *647:31 *656:29 0.000408344
23 *647:31 *819:19 0.000552663
24 *647:33 *897:adc_data[11] 0.000293642
25 *647:33 *897:adc_data[4] 0.00575974
26 *647:33 *648:41 0.0314004
27 *647:33 *650:45 0.0077551
28 *647:33 *656:29 3.48678e-05
29 *40:21 *647:25 0
30 *109:21 *647:33 0.00128817
31 *118:55 *647:31 0.000656204
32 *540:50 *647:31 0.00425175
33 *540:50 *647:33 0.0207555
34 *646:8 *647:21 0.00963375
35 *646:22 *647:31 0.000696803
*RES
1 *892:data_out[10] *647:21 46.056 
2 *647:21 *647:23 8 
3 *647:23 *647:25 1100.94 
4 *647:25 *647:31 16.0957 
5 *647:31 *647:33 73.0856 
6 *647:33 *897:adc_data[10] 8 
*END

*D_NET *648 0.335705
*CONN
*I *897:adc_data[11] I *D soc_sys
*I *892:data_out[11] O *D CF_ADC_SAR12
*CAP
1 *897:adc_data[11] 0.00032185
2 *892:data_out[11] 0.00337905
3 *648:41 0.00704436
4 *648:39 0.00672251
5 *648:37 0.00659498
6 *648:35 0.00659498
7 *648:33 0.00285046
8 *648:21 0.0143512
9 *648:19 0.0115007
10 *648:17 0.00337905
11 *897:adc_data[11] *650:43 7.57281e-06
12 *648:17 *892:test_sea 2.03342e-05
13 *648:17 *892:iso_en 7.20211e-05
14 *648:17 *892:dft_outc[1] 0.00115121
15 *648:17 *693:19 0.00797096
16 *648:17 *713:13 0.000805542
17 *648:17 *726:13 0.000805542
18 *648:17 *776:35 0.00112794
19 *648:21 *693:9 7.58749e-05
20 *648:21 *701:9 0.00109881
21 *648:21 *719:9 0.0108936
22 *648:21 *731:9 0.0683687
23 *648:33 *676:9 2.27289e-05
24 *648:33 *712:9 2.11157e-05
25 *648:33 *772:7 0
26 *648:33 *775:7 0.000852015
27 *648:33 *778:7 0.000844193
28 *648:37 *699:17 0
29 *648:37 *776:11 0
30 *648:37 *787:11 0.00892682
31 *648:41 *897:adc_data[4] 0.00615085
32 *648:41 *650:37 0.00538857
33 *648:41 *651:33 0.00465608
34 *648:41 *656:29 0.0331772
35 *67:257 *648:37 0.00726597
36 *74:61 *648:37 0.00461192
37 *118:55 *648:41 0.00040255
38 *646:8 *648:17 0.000755896
39 *646:10 *648:21 0.0662837
40 *647:21 *648:17 0.00879496
41 *647:31 *648:41 0.000718745
42 *647:33 *897:adc_data[11] 0.000293642
43 *647:33 *648:41 0.0314004
*RES
1 *892:data_out[11] *648:17 47.891 
2 *648:17 *648:19 8 
3 *648:19 *648:21 877.685 
4 *648:21 *648:33 45.8509 
5 *648:33 *648:35 15 
6 *648:35 *648:37 225.34 
7 *648:37 *648:39 8 
8 *648:39 *648:41 61.7941 
9 *648:41 *897:adc_data[11] 12.2568 
*END

*D_NET *649 0.431724
*CONN
*I *897:adc_data[1] I *D soc_sys
*I *892:data_out[1] O *D CF_ADC_SAR12
*CAP
1 *897:adc_data[1] 0
2 *892:data_out[1] 0.00025786
3 *649:25 0.0162947
4 *649:23 0.0163206
5 *649:17 0.00873395
6 *649:15 0.00870802
7 *649:13 0.0256489
8 *649:11 0.0256489
9 *649:9 0.00187946
10 *649:7 0.00213732
11 *649:7 *650:11 0.0001797
12 *649:7 *658:19 9.9794e-05
13 *649:9 *892:hiz 0.000773432
14 *649:9 *650:13 0.0108637
15 *649:9 *651:9 0.0113869
16 *649:9 *695:13 6.55954e-05
17 *649:9 *723:13 4.53082e-05
18 *649:9 *728:29 0.000120171
19 *649:9 *728:37 0.000701198
20 *649:13 *652:33 0.0195206
21 *649:13 *681:9 0
22 *649:13 *684:9 0
23 *649:13 *688:9 0.0115772
24 *649:13 *693:9 0.0768024
25 *649:13 *747:9 0
26 *649:13 *817:9 0.0238658
27 *649:13 *840:21 0
28 *649:17 *650:37 0.00215906
29 *649:17 *651:33 0.0107523
30 *649:25 *897:adc_data[4] 0.00514552
31 *649:25 *897:adc_data[5] 0.000367274
32 *649:25 *650:45 0.0304793
33 *43:23 *649:25 0.000376433
34 *104:22 *649:25 0.0115786
35 *109:21 *649:17 0.000823858
36 *109:21 *649:25 0.000320069
37 *118:41 *649:25 0.000153166
38 *540:50 *649:17 0.00740331
39 *540:50 *649:25 0.0458083
40 *542:34 *649:25 0.00870345
41 *646:22 *649:17 0.0423658
42 *646:22 *649:25 0.00286145
43 *647:31 *649:17 0.000794668
*RES
1 *892:data_out[1] *649:7 20.5307 
2 *649:7 *649:9 124.016 
3 *649:9 *649:11 15 
4 *649:11 *649:13 1110.45 
5 *649:13 *649:15 15 
6 *649:15 *649:17 464.663 
7 *649:17 *649:23 23.3211 
8 *649:23 *649:25 125.679 
9 *649:25 *897:adc_data[1] 8 
*END

*D_NET *650 0.451928
*CONN
*I *897:adc_data[2] I *D soc_sys
*I *892:data_out[2] O *D CF_ADC_SAR12
*CAP
1 *897:adc_data[2] 4.84344e-05
2 *892:data_out[2] 0.000258745
3 *650:45 0.0159102
4 *650:43 0.0158869
5 *650:37 0.00503564
6 *650:35 0.00513189
7 *650:25 0.0132666
8 *650:23 0.0133389
9 *650:17 0.0205225
10 *650:15 0.0203289
11 *650:13 0.00175459
12 *650:11 0.00201333
13 *650:11 *651:7 0.000350079
14 *650:11 *652:11 1.75427e-05
15 *650:13 *672:21 0
16 *650:13 *694:21 0.000329655
17 *650:13 *719:21 0.00134211
18 *650:13 *723:13 0.0102836
19 *650:17 *656:25 0.0644483
20 *650:17 *673:17 0.000223069
21 *650:17 *711:9 0.0182955
22 *650:17 *747:9 0
23 *650:17 *762:17 0.00914248
24 *650:23 *897:sram_dat_i[0] 0.00029543
25 *650:23 *854:7 2.24786e-05
26 *650:23 *859:7 0.000197395
27 *650:25 *652:33 0.0064642
28 *650:25 *736:9 0.00787545
29 *650:25 *783:15 0.00342972
30 *650:25 *788:13 0.000838511
31 *650:25 *790:9 0
32 *650:25 *829:21 0.00160275
33 *650:25 *859:9 0.00125623
34 *650:25 *869:9 0.00238222
35 *650:25 *881:9 0.00114102
36 *650:35 *656:25 4.60531e-05
37 *650:35 *788:13 1.65299e-05
38 *650:35 *819:19 0.000328731
39 *650:35 *881:13 0.000185107
40 *650:37 *651:33 0.0270338
41 *650:37 *656:29 0.00130212
42 *650:37 *819:19 0.000240343
43 *650:45 *897:adc_data[4] 0.00987115
44 *650:45 *897:adc_data[5] 0.000373203
45 *650:45 *655:33 0.000190086
46 *650:45 *656:29 0.0228348
47 *897:adc_data[11] *650:43 7.57281e-06
48 *43:23 *650:45 0.000385829
49 *43:25 *650:45 0.00612976
50 *109:21 *650:37 0.0345097
51 *118:41 *650:45 0.000124741
52 *540:50 *650:35 7.0137e-05
53 *540:50 *650:45 5.90436e-05
54 *542:34 *650:45 0.00115119
55 *646:18 *650:25 0.00207732
56 *646:30 *650:45 0.044731
57 *647:33 *650:45 0.0077551
58 *648:41 *650:37 0.00538857
59 *649:7 *650:11 0.0001797
60 *649:9 *650:13 0.0108637
61 *649:17 *650:37 0.00215906
62 *649:25 *650:45 0.0304793
*RES
1 *892:data_out[2] *650:11 21.4111 
2 *650:11 *650:13 116.87 
3 *650:13 *650:15 15 
4 *650:15 *650:17 832.083 
5 *650:17 *650:23 16.6141 
6 *650:23 *650:25 50.4485 
7 *650:25 *650:35 32.2873 
8 *650:35 *650:37 376.524 
9 *650:37 *650:43 23.3211 
10 *650:43 *650:45 126.452 
11 *650:45 *897:adc_data[2] 8.77679 
*END

*D_NET *651 0.38587
*CONN
*I *897:adc_data[3] I *D soc_sys
*I *892:data_out[3] O *D CF_ADC_SAR12
*CAP
1 *897:adc_data[3] 0.00027003
2 *892:data_out[3] 0.000172055
3 *651:41 0.0180666
4 *651:39 0.018093
5 *651:33 0.00583544
6 *651:31 0.00565257
7 *651:21 0.013996
8 *651:19 0.0141187
9 *651:13 0.0268059
10 *651:11 0.0265697
11 *651:9 0.00196864
12 *651:7 0.0021407
13 *651:7 *652:11 0.000347979
14 *651:9 *892:hiz 0.000876582
15 *651:9 *695:13 0.0120978
16 *651:9 *728:29 0.000344359
17 *651:9 *728:37 0.000801243
18 *651:13 *658:21 0.0198259
19 *651:13 *691:9 0.0160834
20 *651:13 *697:19 4.36457e-05
21 *651:13 *709:9 0.0179591
22 *651:13 *735:9 5.11534e-05
23 *651:13 *769:9 0
24 *651:13 *840:21 0
25 *651:13 *852:13 0
26 *651:13 *865:9 0
27 *651:13 *872:9 0
28 *651:19 *897:sram_dat_i[0] 0.000109746
29 *651:19 *854:7 0.000106572
30 *651:21 *658:21 0.00358426
31 *651:21 *697:9 0.00103551
32 *651:21 *718:9 0.0096975
33 *651:21 *757:9 0
34 *651:21 *823:17 0.00166822
35 *651:21 *848:23 0.0019081
36 *651:21 *850:13 0.000948155
37 *651:21 *858:9 0.000948155
38 *651:21 *868:9 0.00183667
39 *651:21 *888:9 0
40 *651:31 *819:19 0.000326147
41 *651:31 *881:13 0.000317593
42 *651:31 *891:9 0
43 *651:33 *656:29 0.000101624
44 *651:33 *819:19 0.000208177
45 *651:41 *654:27 0.0192673
46 *651:41 *657:25 0.0225381
47 *651:41 *658:25 0.000619149
48 *43:33 *651:41 0.0145613
49 *44:25 *651:41 0.0231693
50 *65:21 *651:41 0.0102224
51 *109:21 *651:33 0.000643805
52 *541:27 *651:41 0.015753
53 *648:41 *651:33 0.00465608
54 *649:9 *651:9 0.0113869
55 *649:17 *651:33 0.0107523
56 *650:11 *651:7 0.000350079
57 *650:37 *651:33 0.0270338
*RES
1 *892:data_out[3] *651:7 20.1786 
2 *651:7 *651:9 130.21 
3 *651:9 *651:11 15 
4 *651:11 *651:13 830.674 
5 *651:13 *651:19 16.5283 
6 *651:19 *651:21 50.5755 
7 *651:21 *651:31 31.9352 
8 *651:31 *651:33 308.394 
9 *651:33 *651:39 27.1946 
10 *651:39 *651:41 127.139 
11 *651:41 *897:adc_data[3] 12.2982 
*END

*D_NET *652 0.47991
*CONN
*I *897:adc_data[4] I *D soc_sys
*I *892:data_out[4] O *D CF_ADC_SAR12
*CAP
1 *897:adc_data[4] 0.0921248
2 *892:data_out[4] 0.000389787
3 *652:33 0.140619
4 *652:31 0.0484941
5 *652:29 0.00154904
6 *652:13 0.00264195
7 *652:11 0.00148271
8 *897:adc_data[4] *655:33 0.00845327
9 *897:adc_data[4] *656:29 0.011043
10 *652:13 *657:9 0.00722989
11 *652:13 *694:21 0.0015725
12 *652:13 *707:13 0.000138791
13 *652:13 *723:13 0.00798573
14 *652:13 *775:21 0.000270428
15 *652:29 *657:19 0.000493573
16 *652:29 *695:13 0.000104089
17 *652:29 *696:13 0.000330466
18 *652:29 *707:13 2.26122e-05
19 *652:29 *719:19 0.00300112
20 *652:29 *728:29 0.00289553
21 *652:29 *777:9 1.41437e-05
22 *652:33 *658:21 0
23 *652:33 *672:9 0
24 *652:33 *684:9 0.000683698
25 *652:33 *688:9 0.00219832
26 *652:33 *693:9 0.0097111
27 *652:33 *719:9 0.0386265
28 *652:33 *736:9 0.00218985
29 *652:33 *783:15 0.00228194
30 *652:33 *817:9 0.00238222
31 *652:33 *824:21 0.00432197
32 *652:33 *851:13 0.00178467
33 *67:261 *897:adc_data[4] 0.00351324
34 *104:22 *897:adc_data[4] 0.00482783
35 *104:26 *652:29 0.000102386
36 *107:21 *897:adc_data[4] 0.00298536
37 *118:55 *897:adc_data[4] 0.000137137
38 *118:75 *652:29 1.85554e-05
39 *540:50 *897:adc_data[4] 0.00690945
40 *541:27 *897:adc_data[4] 0.00734297
41 *604:15 *897:adc_data[4] 6.0636e-05
42 *646:30 *897:adc_data[4] 0.00512905
43 *647:31 *897:adc_data[4] 0.000568664
44 *647:33 *897:adc_data[4] 0.00575974
45 *648:41 *897:adc_data[4] 0.00615085
46 *649:13 *652:33 0.0195206
47 *649:25 *897:adc_data[4] 0.00514552
48 *650:11 *652:11 1.75427e-05
49 *650:25 *652:33 0.0064642
50 *650:45 *897:adc_data[4] 0.00987115
51 *651:7 *652:11 0.000347979
*RES
1 *892:data_out[4] *652:11 22.1154 
2 *652:11 *652:13 85.4257 
3 *652:13 *652:29 48.2597 
4 *652:29 *652:31 8 
5 *652:31 *652:33 200.357 
6 *652:33 *897:adc_data[4] 39.1833 
*END

*D_NET *653 0.223979
*CONN
*I *897:adc_data[5] I *D soc_sys
*I *892:data_out[5] O *D CF_ADC_SAR12
*CAP
1 *897:adc_data[5] 9.34403e-05
2 *892:data_out[5] 7.63916e-05
3 *653:18 0.0289038
4 *653:16 0.0288104
5 *653:14 0.0269977
6 *653:12 0.0269977
7 *653:10 0.0269062
8 *653:8 0.0269826
9 *653:8 *731:17 0
10 *653:10 *654:21 0.00277715
11 *653:10 *655:23 0.00142601
12 *653:10 *676:25 0.00405412
13 *653:14 *700:15 0.0379529
14 *653:14 *748:13 0.01126
15 *653:14 *761:21 0
16 *111:27 *653:14 0
17 *574:19 *653:18 0
18 *649:25 *897:adc_data[5] 0.000367274
19 *650:45 *897:adc_data[5] 0.000373203
*RES
1 *892:data_out[5] *653:8 16.2035 
2 *653:8 *653:10 99.8256 
3 *653:10 *653:12 8 
4 *653:12 *653:14 131.089 
5 *653:14 *653:16 8 
6 *653:16 *653:18 97.6677 
7 *653:18 *897:adc_data[5] 16.7 
*END

*D_NET *654 0.226721
*CONN
*I *897:adc_data[6] I *D soc_sys
*I *892:data_out[6] O *D CF_ADC_SAR12
*CAP
1 *897:adc_data[6] 0.000233985
2 *892:data_out[6] 0.0320694
3 *654:27 0.00458196
4 *654:23 0.0603229
5 *654:21 0.0880444
6 *654:21 *892:reset_n 0
7 *654:21 *655:23 0.000151162
8 *654:23 *892:refby2 8.8581e-06
9 *541:27 *654:27 0.0192637
10 *615:10 *654:23 0
11 *651:41 *654:27 0.0192673
12 *653:10 *654:21 0.00277715
*RES
1 *892:data_out[6] *654:21 41.2578 
2 *654:21 *654:23 189.567 
3 *654:23 *654:27 44.8499 
4 *654:27 *897:adc_data[6] 11.5939 
*END

*D_NET *655 0.271974
*CONN
*I *897:adc_data[7] I *D soc_sys
*I *892:data_out[7] O *D CF_ADC_SAR12
*CAP
1 *897:adc_data[7] 0.000162591
2 *892:data_out[7] 0.0020656
3 *655:33 0.00945442
4 *655:31 0.00929183
5 *655:29 0.0566731
6 *655:27 0.0619651
7 *655:23 0.00735757
8 *655:23 *676:25 0.00387599
9 *655:33 *656:29 0.0393456
10 *897:adc_data[4] *655:33 0.00845327
11 *18:29 *655:27 0
12 *118:45 *655:33 0.0175476
13 *541:27 *655:33 0.0468567
14 *595:21 *655:29 0
15 *646:30 *655:33 0.0071575
16 *650:45 *655:33 0.000190086
17 *653:10 *655:23 0.00142601
18 *654:21 *655:23 0.000151162
*RES
1 *892:data_out[7] *655:23 38.1418 
2 *655:23 *655:27 25.0576 
3 *655:27 *655:29 185.633 
4 *655:29 *655:31 8 
5 *655:31 *655:33 87.2536 
6 *655:33 *897:adc_data[7] 10.1854 
*END

*D_NET *656 0.392503
*CONN
*I *897:adc_data[8] I *D soc_sys
*I *892:data_out[8] O *D CF_ADC_SAR12
*CAP
1 *897:adc_data[8] 0.000112847
2 *892:data_out[8] 0.000101951
3 *656:29 0.0127444
4 *656:27 0.0126316
5 *656:25 0.0166493
6 *656:23 0.017684
7 *656:13 0.0020659
8 *656:11 0.00113318
9 *656:11 *657:7 9.26521e-05
10 *656:13 *697:21 0.00715384
11 *656:13 *720:13 0.00715384
12 *656:13 *726:13 0.00147232
13 *656:23 *892:test_sea 0.00282879
14 *656:23 *892:dft_outc[1] 0.000594499
15 *656:23 *693:19 0.00147627
16 *656:23 *777:9 0
17 *656:25 *673:17 0.0630774
18 *656:25 *711:9 0.00539061
19 *656:25 *736:9 0.000109643
20 *656:25 *762:17 0.0106971
21 *656:25 *788:13 0.00381357
22 *656:25 *792:9 0.0117843
23 *656:29 *808:19 0.000432342
24 *656:29 *819:19 0.00169748
25 *897:adc_data[4] *656:29 0.011043
26 *109:21 *656:29 0.00783656
27 *114:29 *656:29 0.013281
28 *118:45 *656:29 0.00704466
29 *118:55 *656:29 0.000142283
30 *118:75 *656:23 0.000219827
31 *541:27 *656:29 0.0103391
32 *646:28 *897:adc_data[8] 0
33 *647:31 *656:29 0.000408344
34 *647:33 *656:29 3.48678e-05
35 *648:41 *656:29 0.0331772
36 *650:17 *656:25 0.0644483
37 *650:35 *656:25 4.60531e-05
38 *650:37 *656:29 0.00130212
39 *650:45 *656:29 0.0228348
40 *651:33 *656:29 0.000101624
41 *655:33 *656:29 0.0393456
*RES
1 *892:data_out[8] *656:11 17.087 
2 *656:11 *656:13 78.2793 
3 *656:13 *656:23 39.5179 
4 *656:23 *656:25 1105.87 
5 *656:25 *656:27 8 
6 *656:27 *656:29 110.223 
7 *656:29 *897:adc_data[8] 9.48107 
*END

*D_NET *657 0.340162
*CONN
*I *897:adc_data[9] I *D soc_sys
*I *892:data_out[9] O *D CF_ADC_SAR12
*CAP
1 *897:adc_data[9] 0.000308717
2 *892:data_out[9] 0.000450688
3 *657:25 0.0139614
4 *657:23 0.0136527
5 *657:21 0.0177103
6 *657:19 0.0193262
7 *657:9 0.00279664
8 *657:7 0.00163143
9 *657:7 *892:iso_en 0
10 *657:7 *720:27 8.22421e-06
11 *657:7 *724:35 2.11157e-05
12 *657:9 *694:21 0.00136924
13 *657:9 *723:13 2.33782e-05
14 *657:9 *775:21 0.0040605
15 *657:19 *707:13 0.00483328
16 *657:19 *723:13 0.000110155
17 *657:19 *728:29 0.0031326
18 *657:19 *775:19 0.000173416
19 *657:21 *692:9 0
20 *657:21 *696:9 0.0771583
21 *657:21 *715:9 3.73664e-05
22 *657:21 *753:9 0.00359302
23 *657:21 *757:9 0.00223188
24 *657:21 *758:25 0.0645636
25 *657:21 *772:17 0.00543833
26 *657:21 *850:13 0
27 *657:21 *858:9 0.00528942
28 *657:21 *866:9 0
29 *657:21 *888:9 0.000118027
30 *657:25 *658:25 0.013874
31 *657:25 *817:13 0.00148803
32 *65:21 *657:25 0.0522677
33 *118:75 *657:19 4.60157e-05
34 *647:21 *657:7 0.00013256
35 *651:41 *657:25 0.0225381
36 *652:13 *657:9 0.00722989
37 *652:29 *657:19 0.000493573
38 *656:11 *657:7 9.26521e-05
*RES
1 *892:data_out[9] *657:7 21.9393 
2 *657:7 *657:9 77.8029 
3 *657:9 *657:19 41.0028 
4 *657:19 *657:21 1117.14 
5 *657:21 *657:23 8 
6 *657:23 *657:25 100.177 
7 *657:25 *897:adc_data[9] 13.0025 
*END

*D_NET *658 0.282855
*CONN
*I *897:adc_eof I *D soc_sys
*I *892:eof O *D CF_ADC_SAR12
*CAP
1 *897:adc_eof 0.000253503
2 *892:eof 0.00419178
3 *658:25 0.00863599
4 *658:23 0.00838248
5 *658:21 0.0450943
6 *658:19 0.0492861
7 *658:19 *892:hiz 0
8 *658:19 *672:19 8.91416e-05
9 *658:19 *672:21 0.00188679
10 *658:19 *707:13 0.00934842
11 *658:19 *725:13 0.00926098
12 *658:21 *697:9 0.073669
13 *658:21 *709:9 0.00188572
14 *658:21 *719:9 0
15 *658:21 *740:9 0.0023546
16 *658:21 *781:17 0.000150745
17 *658:21 *824:21 0
18 *658:21 *888:9 0
19 *658:25 *817:13 0.000754848
20 *541:27 *658:25 0.0296081
21 *649:7 *658:19 9.9794e-05
22 *651:13 *658:21 0.0198259
23 *651:21 *658:21 0.00358426
24 *651:41 *658:25 0.000619149
25 *652:33 *658:21 0
26 *657:25 *658:25 0.013874
*RES
1 *892:eof *658:19 48.4634 
2 *658:19 *658:21 201.499 
3 *658:21 *658:23 8 
4 *658:23 *658:25 56.7709 
5 *658:25 *897:adc_eof 11.5939 
*END

*D_NET *659 0.316672
*CONN
*I *893:IREF_VCMBUF I *D CF_ADC_SAR12_sar_refs
*I *893:IREF_VREFBUF I *D CF_ADC_SAR12_sar_refs
*I *892:ibias2p5u_1 I *D CF_ADC_SAR12
*I *892:ibias2p5u I *D CF_ADC_SAR12
*I *895:ibias I *D CF_BUF_HIZ
*I *894:ibg_2p375uA O *D CF_BGR
*CAP
1 *893:IREF_VCMBUF 0.000236977
2 *893:IREF_VREFBUF 0.000285292
3 *892:ibias2p5u_1 0.000132304
4 *892:ibias2p5u 0.00088708
5 *895:ibias 0.0684256
6 *894:ibg_2p375uA 0.00340122
7 *659:75 0.00773875
8 *659:67 0.0244356
9 *659:65 0.0451621
10 *659:39 0.0923102
11 *659:15 0.0366815
12 *659:13 0.0347956
13 *659:13 *660:10 0
14 *659:13 *664:11 2.35174e-05
15 *659:39 *892:vinp 0.000142712
16 *659:75 *661:11 1.04317e-05
17 *892:vreflo *659:39 0.000820545
18 *892:vinm *659:39 0.00109224
19 *14:13 *659:75 9.03485e-05
*RES
1 *894:ibg_2p375uA *659:13 34.6342 
2 *659:13 *659:15 108.076 
3 *659:15 *895:ibias 34.7909 
4 *895:ibias *659:39 39.5238 
5 *659:39 *892:ibias2p5u 11.1105 
6 *892:ibias2p5u *892:ibias2p5u_1 0.507733 
7 *659:39 *659:65 9.10262 
8 *659:65 *659:67 57.6837 
9 *659:67 *659:75 49.6694 
10 *659:75 *893:IREF_VREFBUF 8.20533 
11 *893:IREF_VREFBUF *893:IREF_VCMBUF 1.00893 
*END

*D_NET *660 0.0807442
*CONN
*I *896:nbias I *D CF_REFBUF
*I *894:ibg_3uA O *D CF_BGR
*CAP
1 *896:nbias 0.000102749
2 *894:ibg_3uA 4.91457e-05
3 *660:18 0.0267071
4 *660:16 0.0266043
5 *660:14 0.00168425
6 *660:10 0.0133275
7 *660:8 0.0116924
8 *660:8 *664:11 2.98633e-05
9 *660:10 *664:11 0.000546952
10 *659:13 *660:10 0
*RES
1 *894:ibg_3uA *660:8 8.19973 
2 *660:8 *660:10 42.0877 
3 *660:10 *660:14 46.8807 
4 *660:14 *660:16 8 
5 *660:16 *660:18 92.6203 
6 *660:18 *896:nbias 24.8229 
*END

*D_NET *661 0.206684
*CONN
*I *892:refby2 I *D CF_ADC_SAR12
*I *893:REFBY2 O *D CF_ADC_SAR12_sar_refs
*CAP
1 *892:refby2 0.00644603
2 *893:REFBY2 0.00021839
3 *661:23 0.0814128
4 *661:13 0.0932558
5 *661:11 0.0185074
6 *661:23 *662:19 0.00682392
7 *661:23 *722:17 0
8 *654:23 *892:refby2 8.8581e-06
9 *659:75 *661:11 1.04317e-05
*RES
1 *893:REFBY2 *661:11 8.924 
2 *661:11 *661:13 55.6528 
3 *661:13 *661:23 36.7024 
4 *661:23 *892:refby2 30.2973 
*END

*D_NET *662 0.10571
*CONN
*I *892:vrefhi I *D CF_ADC_SAR12
*I *893:REFHI O *D CF_ADC_SAR12_sar_refs
*CAP
1 *892:vrefhi 0.000204217
2 *893:REFHI 0.00164362
3 *662:19 0.0302549
4 *662:17 0.0300507
5 *662:15 0.0175444
6 *662:13 0.019188
7 *14:13 *662:13 0
8 *661:23 *662:19 0.00682392
*RES
1 *893:REFHI *662:13 20.8375 
2 *662:13 *662:15 54.8912 
3 *662:15 *662:17 8 
4 *662:17 *662:19 95.0245 
5 *662:19 *892:vrefhi 0.7896 
*END

*D_NET *663 0.15412
*CONN
*I *892:vinp I *D CF_ADC_SAR12
*I *895:vout O *D CF_BUF_HIZ
*CAP
1 *892:vinp 0.00132351
2 *895:vout 0.0591352
3 *663:21 0.008359
4 *663:19 0.0661707
5 *663:21 *706:17 0.00685984
6 *663:21 *714:29 0.010056
7 *892:vreflo *892:vinp 0.00103625
8 *892:vinm *892:vinp 0.00103625
9 *659:39 *892:vinp 0.000142712
*RES
1 *895:vout *663:19 41.7662 
2 *663:19 *663:21 44.3557 
3 *663:21 *892:vinp 15.0691 
*END

*D_NET *664 0.0821783
*CONN
*I *896:ref_1v2 I *D CF_REFBUF
*I *894:Vout O *D CF_BGR
*CAP
1 *896:ref_1v2 8.54392e-05
2 *894:Vout 0.000496379
3 *664:17 0.037872
4 *664:15 0.0377866
5 *664:13 0.00242057
6 *664:11 0.00291695
7 *659:13 *664:11 2.35174e-05
8 *660:8 *664:11 2.98633e-05
9 *660:10 *664:11 0.000546952
*RES
1 *894:Vout *664:11 18.9173 
2 *664:11 *664:13 55.7836 
3 *664:13 *664:15 8 
4 *664:15 *664:17 132.548 
5 *664:17 *896:ref_1v2 9.87464 
*END

*D_NET *665 0.295051
*CONN
*I *895:e_pd I *D CF_BUF_HIZ
*I *897:analog_ctrl[0] O *D soc_sys
*CAP
1 *895:e_pd 0.000160319
2 *897:analog_ctrl[0] 0.000979321
3 *665:17 0.0157171
4 *665:15 0.0155568
5 *665:13 0.0317069
6 *665:11 0.0317069
7 *665:9 0.0220865
8 *665:7 0.0230658
9 *895:e_pd *895:en_pd 0
10 *665:7 *699:17 4.72403e-05
11 *665:7 *710:7 0.000499439
12 *665:9 *670:9 0.00154963
13 *665:9 *739:9 0.000609194
14 *665:9 *759:9 0.0232957
15 *665:9 *761:13 0.00035702
16 *665:9 *762:15 0.00213502
17 *665:9 *770:9 0.000112617
18 *665:9 *771:9 0
19 *665:9 *790:9 0.000595171
20 *665:13 *671:21 0.033532
21 *665:13 *711:19 0.0159764
22 *665:13 *714:15 0.000415921
23 *665:13 *757:21 0.00189994
24 *665:13 *757:29 0.00923596
25 *665:13 *759:19 4.8098e-05
26 *665:13 *759:29 0.000917237
27 *665:13 *760:21 0.004387
28 *665:13 *760:29 0.00105818
29 *665:13 *771:15 0.00687299
30 *40:21 *665:9 0.000102288
31 *67:255 *665:7 0.000185776
32 *78:21 *665:13 0.0161817
33 *116:23 *665:17 0.0322544
34 *119:18 *895:e_pd 7.51535e-06
35 *647:25 *665:9 0.00179497
*RES
1 *897:analog_ctrl[0] *665:7 11.8061 
2 *665:7 *665:9 75.9621 
3 *665:9 *665:11 8 
4 *665:11 *665:13 169.729 
5 *665:13 *665:15 8 
6 *665:15 *665:17 76.8507 
7 *665:17 *895:e_pd 32.7561 
*END

*D_NET *670 0.196555
*CONN
*I *896:pd I *D CF_REFBUF
*I *897:analog_ctrl[104] O *D soc_sys
*CAP
1 *896:pd 8.41104e-05
2 *897:analog_ctrl[104] 0.00157018
3 *670:13 0.02109
4 *670:11 0.0210059
5 *670:9 0.0398198
6 *670:7 0.04139
7 *670:7 *671:7 0.000908631
8 *670:9 *676:17 0
9 *670:9 *687:9 0.00014386
10 *670:9 *708:9 1.28687e-05
11 *670:9 *723:9 0
12 *670:9 *745:9 0
13 *670:9 *759:19 2.05503e-05
14 *670:9 *770:9 0.00215993
15 *670:9 *779:9 0
16 *670:9 *782:13 0
17 *647:25 *670:9 0.0667999
18 *665:9 *670:9 0.00154963
*RES
1 *897:analog_ctrl[104] *670:7 11.8491 
2 *670:7 *670:9 1210.81 
3 *670:9 *670:11 8 
4 *670:11 *670:13 71.1536 
5 *670:13 *896:pd 24.3464 
*END

*D_NET *671 0.255314
*CONN
*I *896:switchon I *D CF_REFBUF
*I *897:analog_ctrl[105] O *D soc_sys
*CAP
1 *896:switchon 0.000116998
2 *897:analog_ctrl[105] 0.00147891
3 *671:25 0.058067
4 *671:23 0.05795
5 *671:21 0.00720852
6 *671:19 0.00790231
7 *671:9 0.00514604
8 *671:7 0.00593117
9 *671:7 *672:7 0.00099904
10 *671:9 *723:9 0.0208849
11 *671:9 *739:9 0.000740122
12 *671:9 *770:17 0.0140015
13 *671:9 *791:9 0.00630896
14 *671:9 *808:9 0.000274007
15 *671:19 *711:19 0.00111639
16 *671:19 *718:13 0.000292608
17 *671:19 *748:9 0.000159795
18 *671:21 *702:23 0.000328363
19 *671:21 *714:15 0.0113392
20 *671:21 *759:21 0.0021935
21 *671:21 *760:29 0.0116735
22 *671:21 *771:15 0.00676092
23 *671:25 *672:41 0
24 *896:ch2 *896:switchon 0
25 *665:13 *671:21 0.033532
26 *670:7 *671:7 0.000908631
*RES
1 *897:analog_ctrl[105] *671:7 12.2784 
2 *671:7 *671:9 271.999 
3 *671:9 *671:19 28.4605 
4 *671:19 *671:21 62.2664 
5 *671:21 *671:23 8 
6 *671:23 *671:25 191.852 
7 *671:25 *896:switchon 16.3565 
*END

*D_NET *672 0.268429
*CONN
*I *896:boost I *D CF_REFBUF
*I *897:analog_ctrl[106] O *D soc_sys
*CAP
1 *896:boost 4.67136e-05
2 *897:analog_ctrl[106] 0.00193318
3 *672:41 0.0252959
4 *672:39 0.025848
5 *672:35 0.00316133
6 *672:27 0.00274112
7 *672:21 0.00561198
8 *672:19 0.00549941
9 *672:9 0.0317544
10 *672:7 0.0336215
11 *672:7 *673:7 0.000516409
12 *672:7 *674:7 0.000330689
13 *672:9 *681:9 0.000468301
14 *672:9 *711:9 0.00152649
15 *672:9 *736:9 0.0125542
16 *672:9 *747:9 0.000754659
17 *672:9 *762:17 0.0619617
18 *672:9 *790:9 0
19 *672:19 *673:17 2.29099e-05
20 *672:19 *707:13 9.22365e-05
21 *672:21 *695:21 0.000979813
22 *672:21 *707:13 0.000140539
23 *672:21 *723:13 5.6287e-05
24 *672:21 *775:21 0.0153034
25 *672:27 *728:37 7.43012e-05
26 *672:35 *719:21 0.0142289
27 *672:35 *723:23 0.0142289
28 *672:35 *728:51 8.48453e-05
29 *672:39 *694:21 0.00303209
30 *672:39 *695:21 0.00302848
31 *672:39 *775:21 0.000555221
32 *650:13 *672:21 0
33 *652:33 *672:9 0
34 *658:19 *672:19 8.91416e-05
35 *658:19 *672:21 0.00188679
36 *671:7 *672:7 0.00099904
37 *671:25 *672:41 0
*RES
1 *897:analog_ctrl[106] *672:7 13.3517 
2 *672:7 *672:9 156.057 
3 *672:9 *672:19 31.5059 
4 *672:19 *672:21 176.9 
5 *672:21 *672:27 26.1382 
6 *672:27 *672:35 45.1901 
7 *672:35 *672:39 13.7661 
8 *672:39 *672:41 85.1013 
9 *672:41 *896:boost 16.0989 
*END

*D_NET *673 0.235122
*CONN
*I *896:ch_cont I *D CF_REFBUF
*I *897:analog_ctrl[107] O *D soc_sys
*CAP
1 *896:ch_cont 1.92429e-05
2 *897:analog_ctrl[107] 0.000756996
3 *673:21 0.0213962
4 *673:19 0.021377
5 *673:17 0.0421753
6 *673:15 0.043326
7 *673:9 0.0028627
8 *673:7 0.00246909
9 *673:7 *674:7 0.000516409
10 *673:9 *763:9 0
11 *673:9 *819:9 0.00367929
12 *673:17 *761:17 0
13 *673:17 *762:17 0.0297368
14 *673:17 *792:9 0.00275668
15 *673:17 *794:9 0.000210358
16 *673:17 *795:9 0
17 *650:17 *673:17 0.000223069
18 *656:25 *673:17 0.0630774
19 *672:7 *673:7 0.000516409
20 *672:19 *673:17 2.29099e-05
*RES
1 *897:analog_ctrl[107] *673:7 10.2176 
2 *673:7 *673:9 48.5646 
3 *673:9 *673:15 46.3436 
4 *673:15 *673:17 1255.36 
5 *673:17 *673:19 8 
6 *673:19 *673:21 72.5275 
7 *673:21 *896:ch_cont 23.3211 
*END

*D_NET *674 0.0900234
*CONN
*I *893:sw_start I *D CF_ADC_SAR12_sar_refs
*I *897:analog_ctrl[108] O *D soc_sys
*CAP
1 *893:sw_start 8.97761e-05
2 *897:analog_ctrl[108] 0.00439438
3 *674:13 0.00945444
4 *674:9 0.019436
5 *674:7 0.0144657
6 *893:sw_start *893:pd_ana 0
7 *674:7 *675:7 0.00196159
8 *674:7 *677:7 0.000259803
9 *674:9 *678:9 0.0013879
10 *674:9 *729:9 0.00291409
11 *674:9 *746:9 0.0259052
12 *674:9 *783:17 0
13 *674:9 *890:9 0.00565561
14 *674:13 *776:21 0.00325175
15 *672:7 *674:7 0.000330689
16 *673:7 *674:7 0.000516409
*RES
1 *897:analog_ctrl[108] *674:7 19.0619 
2 *674:7 *674:9 368.486 
3 *674:9 *674:13 42.4027 
4 *674:13 *893:sw_start 9.87464 
*END

*D_NET *675 0.115387
*CONN
*I *893:pd_vcmbuf I *D CF_ADC_SAR12_sar_refs
*I *897:analog_ctrl[109] O *D soc_sys
*CAP
1 *893:pd_vcmbuf 1.85064e-05
2 *897:analog_ctrl[109] 0.00286827
3 *675:15 0.00827701
4 *675:9 0.0200709
5 *675:7 0.0146807
6 *893:pd_vcmbuf *893:EN_RESVDA 4.47213e-05
7 *675:7 *677:7 0.0019582
8 *675:9 *686:9 0
9 *675:9 *741:25 0.0349091
10 *675:9 *753:9 0
11 *675:9 *781:17 0.0037351
12 *675:9 *868:9 0.00841616
13 *675:15 *893:PWR_CTRL_VREF[1] 2.47315e-05
14 *675:15 *893:enable_hv 0.000250234
15 *675:15 *689:17 0.0165966
16 *675:15 *694:15 0.000342672
17 *675:15 *741:29 0.00123221
18 *674:7 *675:7 0.00196159
*RES
1 *897:analog_ctrl[109] *675:7 16.4 
2 *675:7 *675:9 450.888 
3 *675:9 *675:15 45.2577 
4 *675:15 *893:pd_vcmbuf 8.54893 
*END

*D_NET *676 0.154153
*CONN
*I *892:reset_n I *D CF_ADC_SAR12
*I *897:analog_ctrl[10] O *D soc_sys
*CAP
1 *892:reset_n 0.00122705
2 *897:analog_ctrl[10] 0.00021811
3 *676:25 0.0295876
4 *676:23 0.031491
5 *676:17 0.00971468
6 *676:15 0.0072804
7 *676:9 0.00514919
8 *676:7 0.00467112
9 *892:reset_n *892:sel_csel_dft[3] 0
10 *676:7 *687:7 0.000234329
11 *676:7 *754:7 0
12 *676:7 *776:11 1.38508e-05
13 *676:7 *787:9 4.72403e-05
14 *676:9 *699:33 2.11157e-05
15 *676:9 *712:9 0.00531642
16 *676:9 *741:19 2.21614e-05
17 *676:9 *754:9 0
18 *676:9 *789:9 0.0125539
19 *676:15 *897:sram_dat_i[2] 0.00126658
20 *676:15 *881:7 0.00126364
21 *676:17 *770:9 0.00172543
22 *676:17 *771:9 0.000806261
23 *676:17 *779:9 0.0172526
24 *676:23 *718:13 0.00285878
25 *676:23 *735:15 0.00926781
26 *897:wbs_adr_i[30] *676:23 9.44899e-05
27 *897:wbs_adr_i[31] *676:23 4.93791e-05
28 *897:wbs_dat_i[30] *676:23 0.000938755
29 *897:wbs_dat_i[31] *676:23 0.000671182
30 *67:233 *676:9 0.000796006
31 *104:26 *676:9 0.00010542
32 *566:15 *676:25 4.84709e-06
33 *631:8 *676:23 0.000687044
34 *632:16 *676:23 0.000863933
35 *648:33 *676:9 2.27289e-05
36 *653:10 *676:25 0.00405412
37 *654:21 *892:reset_n 0
38 *655:23 *676:25 0.00387599
39 *670:9 *676:17 0
*RES
1 *897:analog_ctrl[10] *676:7 8.84373 
2 *676:7 *676:9 178.329 
3 *676:9 *676:15 18.632 
4 *676:15 *676:17 224.108 
5 *676:17 *676:23 34.0451 
6 *676:23 *676:25 101.73 
7 *676:25 *892:reset_n 30.029 
*END

*D_NET *677 0.119767
*CONN
*I *893:S_LV[0] I *D CF_ADC_SAR12_sar_refs
*I *897:analog_ctrl[110] O *D soc_sys
*CAP
1 *893:S_LV[0] 0.0066165
2 *897:analog_ctrl[110] 0.00502681
3 *677:9 0.0133732
4 *677:7 0.0117835
5 *893:S_LV[0] *893:S_LV[1] 2.89934e-05
6 *893:S_LV[0] *678:13 0.017234
7 *677:7 *678:7 0.00253965
8 *677:7 *679:7 0.000113514
9 *677:7 *680:7 0
10 *677:7 *682:7 0
11 *677:9 *682:9 0.00151501
12 *677:9 *689:9 0.0312818
13 *677:9 *713:9 0
14 *677:9 *744:9 0.0258847
15 *677:9 *818:9 0.000628751
16 *893:vssa *893:S_LV[0] 0.00152232
17 *674:7 *677:7 0.000259803
18 *675:7 *677:7 0.0019582
*RES
1 *897:analog_ctrl[110] *677:7 21.552 
2 *677:7 *677:9 417.082 
3 *677:9 *893:S_LV[0] 48.5473 
*END

*D_NET *678 0.114453
*CONN
*I *893:S_LV[1] I *D CF_ADC_SAR12_sar_refs
*I *897:analog_ctrl[111] O *D soc_sys
*CAP
1 *893:S_LV[1] 7.28337e-06
2 *897:analog_ctrl[111] 0.00371036
3 *678:13 0.0039787
4 *678:9 0.0172167
5 *678:7 0.0169557
6 *893:S_LV[1] *893:S_LV[2] 2.89934e-05
7 *678:7 *679:7 0.00253965
8 *678:9 *729:9 0.00304538
9 *678:9 *746:9 0.025583
10 *678:9 *781:9 0.00068636
11 *678:9 *783:17 0
12 *678:9 *784:9 0
13 *678:13 *893:S_LV[2] 0.0179643
14 *678:13 *681:13 0.000214329
15 *893:vssa *678:13 0.0013315
16 *893:S_LV[0] *893:S_LV[1] 2.89934e-05
17 *893:S_LV[0] *678:13 0.017234
18 *674:9 *678:9 0.0013879
19 *677:7 *678:7 0.00253965
*RES
1 *897:analog_ctrl[111] *678:7 18.8901 
2 *678:7 *678:9 414.969 
3 *678:9 *678:13 42.6603 
4 *678:13 *893:S_LV[1] 8.54893 
*END

*D_NET *679 0.10804
*CONN
*I *893:S_LV[2] I *D CF_ADC_SAR12_sar_refs
*I *897:analog_ctrl[112] O *D soc_sys
*CAP
1 *893:S_LV[2] 0.00341712
2 *897:analog_ctrl[112] 0.00426571
3 *679:9 0.013554
4 *679:7 0.0144025
5 *893:S_LV[2] *893:S_LV[3] 0.0178986
6 *893:S_LV[2] *681:13 4.76467e-05
7 *679:7 *680:7 0.00281755
8 *679:9 *680:9 0.013615
9 *679:9 *694:9 0
10 *679:9 *702:9 0.00398111
11 *679:9 *702:13 0.00431338
12 *679:9 *710:9 0.000961026
13 *679:9 *738:9 0.00122017
14 *679:9 *860:9 0.00556848
15 *893:vssa *893:S_LV[2] 0.0013315
16 *893:S_LV[1] *893:S_LV[2] 2.89934e-05
17 *677:7 *679:7 0.000113514
18 *678:7 *679:7 0.00253965
19 *678:13 *893:S_LV[2] 0.0179643
*RES
1 *897:analog_ctrl[112] *679:7 20.1781 
2 *679:7 *679:9 412.856 
3 *679:9 *893:S_LV[2] 49.9212 
*END

*D_NET *680 0.108775
*CONN
*I *893:S_LV[3] I *D CF_ADC_SAR12_sar_refs
*I *897:analog_ctrl[113] O *D soc_sys
*CAP
1 *893:S_LV[3] 0.00339699
2 *897:analog_ctrl[113] 0.00450577
3 *680:9 0.0153364
4 *680:7 0.0164452
5 *893:S_LV[3] *893:S_LV[4] 2.89934e-05
6 *893:S_LV[3] *681:13 0.0178696
7 *680:7 *681:7 0.00136976
8 *680:7 *682:7 0.000619564
9 *680:9 *710:9 0.000961026
10 *680:9 *714:9 0
11 *680:9 *738:9 0.00110163
12 *680:9 *825:21 0.00601603
13 *680:9 *860:9 0.00546167
14 *893:vssa *893:S_LV[3] 0.0013315
15 *893:S_LV[2] *893:S_LV[3] 0.0178986
16 *677:7 *680:7 0
17 *679:7 *680:7 0.00281755
18 *679:9 *680:9 0.013615
*RES
1 *897:analog_ctrl[113] *680:7 20.3499 
2 *680:7 *680:9 410.744 
3 *680:9 *893:S_LV[3] 49.7495 
*END

*D_NET *681 0.12521
*CONN
*I *893:S_LV[4] I *D CF_ADC_SAR12_sar_refs
*I *897:analog_ctrl[114] O *D soc_sys
*CAP
1 *893:S_LV[4] 7.28337e-06
2 *897:analog_ctrl[114] 0.00194068
3 *681:13 0.00514332
4 *681:9 0.0118961
5 *681:7 0.00870071
6 *893:S_LV[4] *893:S_LV[7] 2.89934e-05
7 *681:7 *682:7 0.00136976
8 *681:9 *684:9 0.0120782
9 *681:9 *736:9 0.00174455
10 *681:9 *747:9 0.0316637
11 *681:9 *869:9 0.0081582
12 *681:13 *684:13 0.0211489
13 *893:vssa *681:13 0.0013315
14 *893:S_LV[3] *893:S_LV[4] 2.89934e-05
15 *893:S_LV[3] *681:13 0.0178696
16 *893:S_LV[2] *681:13 4.76467e-05
17 *649:13 *681:9 0
18 *672:9 *681:9 0.000468301
19 *678:13 *681:13 0.000214329
20 *680:7 *681:7 0.00136976
*RES
1 *897:analog_ctrl[114] *681:7 13.824 
2 *681:7 *681:9 408.631 
3 *681:9 *681:13 47.7264 
4 *681:13 *893:S_LV[4] 8.54893 
*END

*D_NET *682 0.0857028
*CONN
*I *893:S_LV[5] I *D CF_ADC_SAR12_sar_refs
*I *897:analog_ctrl[115] O *D soc_sys
*CAP
1 *893:S_LV[5] 0.0004619
2 *897:analog_ctrl[115] 0.00510247
3 *682:15 0.0103217
4 *682:9 0.0218465
5 *682:7 0.0170892
6 *893:S_LV[5] *893:S_LV[6] 3.96157e-05
7 *893:S_LV[5] *893:dft_comp_en 2.36197e-05
8 *682:7 *683:7 0.00319981
9 *682:9 *713:9 0
10 *682:9 *744:9 0.00825807
11 *682:9 *830:13 0.00739401
12 *682:9 *871:9 0.00846161
13 *677:7 *682:7 0
14 *677:9 *682:9 0.00151501
15 *680:7 *682:7 0.000619564
16 *681:7 *682:7 0.00136976
*RES
1 *897:analog_ctrl[115] *682:7 21.8096 
2 *682:7 *682:9 395.249 
3 *682:9 *682:15 47.6549 
4 *682:15 *893:S_LV[5] 10.8491 
*END

*D_NET *683 0.0775754
*CONN
*I *893:S_LV[6] I *D CF_ADC_SAR12_sar_refs
*I *897:analog_ctrl[116] O *D soc_sys
*CAP
1 *893:S_LV[6] 0.00646295
2 *897:analog_ctrl[116] 0.00687241
3 *683:9 0.0240373
4 *683:7 0.0244468
5 *893:S_LV[6] *893:dft_comp_en 0.00729634
6 *683:7 *684:7 0.00140317
7 *683:7 *685:7 0.000374671
8 *683:7 *689:7 0
9 *683:9 *796:9 0
10 *683:9 *820:9 0
11 *683:9 *849:13 0.00344223
12 *683:9 *864:9 0
13 *683:9 *875:11 0
14 *893:S_LV[5] *893:S_LV[6] 3.96157e-05
15 *682:7 *683:7 0.00319981
*RES
1 *897:analog_ctrl[116] *683:7 25.3301 
2 *683:7 *683:9 402.996 
3 *683:9 *893:S_LV[6] 44.7692 
*END

*D_NET *684 0.108629
*CONN
*I *893:S_LV[7] I *D CF_ADC_SAR12_sar_refs
*I *897:analog_ctrl[117] O *D soc_sys
*CAP
1 *893:S_LV[7] 7.28337e-06
2 *897:analog_ctrl[117] 0.00202425
3 *684:13 0.00549005
4 *684:9 0.0144234
5 *684:7 0.0109648
6 *893:S_LV[7] *893:dft_comp_en 2.89934e-05
7 *684:7 *685:7 0.00140317
8 *684:9 *688:9 0.00651185
9 *684:9 *736:9 0.00128264
10 *684:9 *829:21 0.00677028
11 *684:9 *869:9 0.00783777
12 *684:13 *893:dft_comp_en 0.0165419
13 *893:S_LV[4] *893:S_LV[7] 2.89934e-05
14 *649:13 *684:9 0
15 *652:33 *684:9 0.000683698
16 *681:9 *684:9 0.0120782
17 *681:13 *684:13 0.0211489
18 *683:7 *684:7 0.00140317
*RES
1 *897:analog_ctrl[117] *684:7 13.9957 
2 *684:7 *684:9 403.701 
3 *684:9 *684:13 47.5547 
4 *684:13 *893:S_LV[7] 8.54893 
*END

*D_NET *685 0.0722153
*CONN
*I *893:refout_en I *D CF_ADC_SAR12_sar_refs
*I *897:analog_ctrl[118] O *D soc_sys
*CAP
1 *893:refout_en 8.89492e-05
2 *897:analog_ctrl[118] 0.0035991
3 *685:13 0.0115681
4 *685:9 0.0226292
5 *685:7 0.0147491
6 *893:refout_en *893:hiz 0
7 *685:7 *686:7 0.00204104
8 *685:7 *689:7 0
9 *685:9 *692:9 0.00671478
10 *685:9 *827:21 0.00607537
11 *685:9 *857:9 0.00259651
12 *685:9 *866:9 0.000375348
13 *685:13 *893:hiz 0
14 *685:13 *686:17 0
15 *42:13 *685:9 0
16 *683:7 *685:7 0.000374671
17 *684:7 *685:7 0.00140317
*RES
1 *897:analog_ctrl[118] *685:7 17.8597 
2 *685:7 *685:9 343.836 
3 *685:9 *685:13 43.6048 
4 *685:13 *893:refout_en 9.87464 
*END

*D_NET *686 0.0757626
*CONN
*I *893:sw_holdb I *D CF_ADC_SAR12_sar_refs
*I *897:analog_ctrl[119] O *D soc_sys
*CAP
1 *893:sw_holdb 8.87362e-05
2 *897:analog_ctrl[119] 0.00306404
3 *686:17 0.00927634
4 *686:9 0.0196276
5 *686:7 0.0135041
6 *893:sw_holdb *893:enpdb_hv 5.41575e-05
7 *686:7 *688:7 0.00146276
8 *686:7 *689:7 0.000240833
9 *686:9 *753:9 0.00762398
10 *686:9 *757:19 2.22269e-05
11 *686:9 *772:17 0.00198737
12 *686:9 *823:17 0.00060035
13 *686:9 *850:13 0.00333918
14 *686:9 *868:9 0.000865832
15 *686:9 *887:9 0.00344599
16 *686:17 *688:17 0.00851805
17 *675:9 *686:9 0
18 *685:7 *686:7 0.00204104
19 *685:13 *686:17 0
*RES
1 *897:analog_ctrl[119] *686:7 16.7435 
2 *686:7 *686:9 336.794 
3 *686:9 *686:17 44.96 
4 *686:17 *893:sw_holdb 10.2268 
*END

*D_NET *687 0.213952
*CONN
*I *892:sof I *D CF_ADC_SAR12
*I *897:analog_ctrl[11] O *D soc_sys
*CAP
1 *892:sof 0
2 *897:analog_ctrl[11] 0.00102211
3 *687:21 0.00248946
4 *687:9 0.0163339
5 *687:7 0.0148666
6 *687:7 *691:7 0.00110004
7 *687:7 *754:7 0
8 *687:9 *708:9 0.075377
9 *687:9 *759:9 0.0020353
10 *687:9 *791:9 0
11 *687:21 *892:sample_width[1] 1.5336e-05
12 *687:21 *892:test_sea 0.00763315
13 *687:21 *892:dft_outc[1] 0.00165173
14 *687:21 *691:21 0.00275358
15 *687:21 *693:19 5.11247e-05
16 *687:21 *708:25 0.00655447
17 *687:21 *726:13 1.86684e-05
18 *687:21 *776:35 0.00477505
19 *647:25 *687:9 0.0768967
20 *670:9 *687:9 0.00014386
21 *676:7 *687:7 0.000234329
*RES
1 *897:analog_ctrl[11] *687:7 12.0208 
2 *687:7 *687:9 991.779 
3 *687:9 *687:21 46.7216 
4 *687:21 *892:sof 8 
*END

*D_NET *688 0.0790155
*CONN
*I *893:enpdb_hv I *D CF_ADC_SAR12_sar_refs
*I *897:analog_ctrl[120] O *D soc_sys
*CAP
1 *893:enpdb_hv 8.87195e-05
2 *897:analog_ctrl[120] 0.00210467
3 *688:17 0.0102449
4 *688:9 0.0173727
5 *688:7 0.00932124
6 *688:7 *689:7 0.00146782
7 *688:9 *817:9 0.00311276
8 *688:9 *829:21 0.0014407
9 *688:9 *851:13 0.0035397
10 *893:sw_holdb *893:enpdb_hv 5.41575e-05
11 *649:13 *688:9 0.0115772
12 *652:33 *688:9 0.00219832
13 *684:9 *688:9 0.00651185
14 *686:7 *688:7 0.00146276
15 *686:17 *688:17 0.00851805
*RES
1 *897:analog_ctrl[120] *688:7 14.2533 
2 *688:7 *688:9 333.976 
3 *688:9 *688:17 47.4501 
4 *688:17 *893:enpdb_hv 10.2268 
*END

*D_NET *689 0.115913
*CONN
*I *893:PD_BUF_VREF I *D CF_ADC_SAR12_sar_refs
*I *897:analog_ctrl[121] O *D soc_sys
*CAP
1 *893:PD_BUF_VREF 5.04854e-05
2 *897:analog_ctrl[121] 0.00520202
3 *689:17 0.00378543
4 *689:9 0.0162864
5 *689:7 0.0177534
6 *893:PD_BUF_VREF *893:PWR_CTRL_VREF[1] 0.000117877
7 *893:PD_BUF_VREF *893:EN_RESVDA 0.000211146
8 *689:7 *690:7 0.00289804
9 *689:9 *713:9 0
10 *689:9 *714:9 0
11 *689:9 *818:9 0.00340758
12 *689:17 *893:EN_RESVDA 1.95819e-05
13 *689:17 *741:29 0.0165937
14 *675:15 *689:17 0.0165966
15 *677:9 *689:9 0.0312818
16 *683:7 *689:7 0
17 *685:7 *689:7 0
18 *686:7 *689:7 0.000240833
19 *688:7 *689:7 0.00146782
*RES
1 *897:analog_ctrl[121] *689:7 21.4661 
2 *689:7 *689:9 433.281 
3 *689:9 *689:17 48.0101 
4 *689:17 *893:PD_BUF_VREF 2.45464 
*END

*D_NET *690 0.0986159
*CONN
*I *893:dft_comp_en I *D CF_ADC_SAR12_sar_refs
*I *897:analog_ctrl[122] O *D soc_sys
*CAP
1 *893:dft_comp_en 0.00418169
2 *897:analog_ctrl[122] 0.00602774
3 *690:9 0.0176127
4 *690:7 0.0194587
5 *690:7 *897:sram_ack_i 0.00119318
6 *690:7 *821:7 0.000610729
7 *690:9 *713:9 0
8 *690:9 *725:9 0.00372095
9 *690:9 *802:9 0.000530353
10 *690:9 *807:9 0.000409027
11 *690:9 *837:13 0.0086666
12 *690:9 *867:9 0.00683989
13 *893:S_LV[7] *893:dft_comp_en 2.89934e-05
14 *893:S_LV[6] *893:dft_comp_en 0.00729634
15 *893:S_LV[5] *893:dft_comp_en 2.36197e-05
16 *67:217 *690:9 0.0025755
17 *684:13 *893:dft_comp_en 0.0165419
18 *689:7 *690:7 0.00289804
*RES
1 *897:analog_ctrl[122] *690:7 22.9259 
2 *690:7 *690:9 395.954 
3 *690:9 *893:dft_comp_en 47.1735 
*END

*D_NET *691 0.158147
*CONN
*I *892:next I *D CF_ADC_SAR12
*I *897:analog_ctrl[12] O *D soc_sys
*CAP
1 *892:next 0
2 *897:analog_ctrl[12] 0.00196603
3 *691:21 0.00273247
4 *691:9 0.0277099
5 *691:7 0.0269435
6 *691:7 *692:7 0.0021775
7 *691:9 *697:9 0.0100943
8 *691:9 *709:9 0.00126774
9 *691:9 *735:9 0.0264771
10 *691:9 *741:25 0.0105159
11 *691:9 *848:23 0.00728554
12 *691:9 *891:9 0
13 *691:21 *892:test_sea 0.00275011
14 *691:21 *892:dft_outc[1] 0.000380902
15 *691:21 *693:19 0.000202987
16 *691:21 *713:13 0.00885701
17 *691:21 *726:13 0.00884925
18 *651:13 *691:9 0.0160834
19 *687:7 *691:7 0.00110004
20 *687:21 *691:21 0.00275358
*RES
1 *897:analog_ctrl[12] *691:7 16.0565 
2 *691:7 *691:9 992.484 
3 *691:9 *691:21 48.7321 
4 *691:21 *892:next 8 
*END

*D_NET *692 0.206037
*CONN
*I *893:hiz I *D CF_ADC_SAR12_sar_refs
*I *892:hiz I *D CF_ADC_SAR12
*I *897:analog_ctrl[13] O *D soc_sys
*CAP
1 *893:hiz 0.00860353
2 *892:hiz 0.00252918
3 *897:analog_ctrl[13] 0.00217341
4 *692:17 0.0177209
5 *692:15 0.0182187
6 *692:11 0.0116304
7 *692:9 0.00865539
8 *692:7 0.0108288
9 *892:hiz *892:test_sea 0
10 *892:hiz *892:iso_en 0.00283523
11 *892:hiz *694:21 0.000808656
12 *892:hiz *695:13 0.000694012
13 *892:hiz *696:13 0.000801243
14 *892:hiz *697:27 3.14007e-05
15 *892:hiz *708:25 1.36684e-05
16 *892:hiz *713:13 0.000160724
17 *892:hiz *719:21 0.0024054
18 *892:hiz *723:19 9.83712e-06
19 *892:hiz *724:37 0.00147527
20 *892:hiz *728:29 0.00396854
21 *892:hiz *728:37 0.00424489
22 *893:hiz *893:pd 7.05823e-05
23 *893:hiz *776:21 5.43777e-05
24 *893:hiz *787:47 0.0101175
25 *692:7 *693:7 0.00175341
26 *692:7 *694:7 0.000404467
27 *692:9 *696:9 0
28 *692:9 *704:9 0.000350341
29 *692:9 *715:9 0.00067203
30 *692:9 *728:9 0.0349579
31 *692:9 *737:9 0.00117955
32 *692:9 *866:9 0.0183458
33 *692:9 *888:9 0.00100836
34 *692:15 *787:17 6.1038e-05
35 *692:15 *787:47 0.00271931
36 *692:17 *694:17 0.0165185
37 *692:17 *773:42 0.00693441
38 *692:17 *777:9 0.00247999
39 *692:17 *787:11 5.747e-05
40 *893:refout_en *893:hiz 0
41 *42:13 *692:9 0
42 *649:9 *892:hiz 0.000773432
43 *651:9 *892:hiz 0.000876582
44 *657:21 *692:9 0
45 *658:19 *892:hiz 0
46 *685:9 *692:9 0.00671478
47 *685:13 *893:hiz 0
48 *691:7 *692:7 0.0021775
*RES
1 *897:analog_ctrl[13] *692:7 17.6021 
2 *692:7 *692:9 496.666 
3 *692:9 *692:11 8 
4 *692:11 *692:15 18.36 
5 *692:15 *692:17 497.371 
6 *692:17 *892:hiz 41.1392 
7 *692:11 *893:hiz 45.5403 
*END

*D_NET *693 0.220893
*CONN
*I *892:iso_en I *D CF_ADC_SAR12
*I *897:analog_ctrl[14] O *D soc_sys
*CAP
1 *892:iso_en 0.000786218
2 *897:analog_ctrl[14] 0.00134963
3 *693:19 0.00317605
4 *693:9 0.0161925
5 *693:7 0.0151523
6 *892:iso_en *713:13 0.00283523
7 *892:iso_en *724:29 0.000178207
8 *693:7 *694:7 0.00175002
9 *693:9 *701:9 0
10 *693:9 *731:9 0.0728035
11 *693:9 *840:21 0
12 *693:19 *892:test_sea 0.000272279
13 *693:19 *892:dft_outc[1] 0.00109761
14 *693:19 *776:35 0.00434858
15 *892:hiz *892:iso_en 0.00283523
16 *648:17 *892:iso_en 7.20211e-05
17 *648:17 *693:19 0.00797096
18 *648:21 *693:9 7.58749e-05
19 *649:13 *693:9 0.0768024
20 *652:33 *693:9 0.0097111
21 *656:23 *693:19 0.00147627
22 *657:7 *892:iso_en 0
23 *687:21 *693:19 5.11247e-05
24 *691:21 *693:19 0.000202987
25 *692:7 *693:7 0.00175341
*RES
1 *897:analog_ctrl[14] *693:7 14.5109 
2 *693:7 *693:9 984.736 
3 *693:9 *693:19 45.4804 
4 *693:19 *892:iso_en 17.416 
*END

*D_NET *694 0.295271
*CONN
*I *893:enable_hv I *D CF_ADC_SAR12_sar_refs
*I *892:enable_hv I *D CF_ADC_SAR12
*I *897:analog_ctrl[15] O *D soc_sys
*CAP
1 *893:enable_hv 0.0106897
2 *892:enable_hv 0.000196374
3 *897:analog_ctrl[15] 0.00293798
4 *694:21 0.00756624
5 *694:19 0.00736987
6 *694:17 0.00593038
7 *694:15 0.0105145
8 *694:11 0.0152739
9 *694:9 0.0117135
10 *694:7 0.0146515
11 *892:enable_hv *892:trimunit 0.000483987
12 *892:enable_hv *892:cap_trim[1] 3.66832e-05
13 *892:enable_hv *892:cap_trim[0] 9.73793e-05
14 *694:7 *695:7 0.00277359
15 *694:9 *702:9 0.0222634
16 *694:9 *702:13 0.00429508
17 *694:9 *710:9 0.00498147
18 *694:9 *720:9 0.0430296
19 *694:9 *760:19 2.11066e-05
20 *694:9 *844:17 0
21 *694:9 *860:9 0
22 *694:15 *741:29 0
23 *694:15 *747:13 0
24 *694:17 *773:42 0.00639516
25 *694:17 *777:9 0.0319008
26 *694:21 *892:icont_lv[1] 0.000233335
27 *694:21 *892:dft_outc[0] 0.00388806
28 *694:21 *695:21 0.00321693
29 *694:21 *696:21 1.12325e-05
30 *694:21 *707:13 0.0130767
31 *694:21 *719:21 0.0307208
32 *694:21 *723:13 0.000382331
33 *694:21 *728:29 2.25541e-05
34 *694:21 *728:51 0.014219
35 *892:hiz *694:21 0.000808656
36 *650:13 *694:21 0.000329655
37 *652:13 *694:21 0.0015725
38 *657:9 *694:21 0.00136924
39 *672:39 *694:21 0.00303209
40 *675:15 *893:enable_hv 0.000250234
41 *675:15 *694:15 0.000342672
42 *679:9 *694:9 0
43 *692:7 *694:7 0.000404467
44 *692:17 *694:17 0.0165185
45 *693:7 *694:7 0.00175002
*RES
1 *897:analog_ctrl[15] *694:7 19.8347 
2 *694:7 *694:9 586.111 
3 *694:9 *694:11 8 
4 *694:11 *694:15 20.4208 
5 *694:15 *694:17 406.518 
6 *694:17 *694:19 8 
7 *694:19 *694:21 70.0373 
8 *694:21 *892:enable_hv 14.8409 
9 *694:11 *893:enable_hv 42.8844 
*END

*D_NET *695 0.293779
*CONN
*I *892:trimunit I *D CF_ADC_SAR12
*I *897:analog_ctrl[16] O *D soc_sys
*CAP
1 *892:trimunit 0.00032069
2 *897:analog_ctrl[16] 0.00243367
3 *695:21 0.00581398
4 *695:19 0.00569951
5 *695:13 0.00301107
6 *695:11 0.00280485
7 *695:9 0.0153642
8 *695:7 0.0177978
9 *892:trimunit *892:dft_inc[2] 0
10 *892:trimunit *892:dft_inc[1] 0
11 *695:7 *696:7 0.00222877
12 *695:9 *707:9 0.0753023
13 *695:9 *890:9 0
14 *695:13 *696:13 0.0139386
15 *695:13 *720:13 0
16 *695:13 *723:13 0.000104036
17 *695:13 *728:29 0.000753233
18 *695:13 *775:21 0
19 *695:21 *696:21 0.0242774
20 *695:21 *707:13 0.00404523
21 *695:21 *725:13 0.00173589
22 *695:21 *728:51 0.014219
23 *695:21 *775:21 0.00398331
24 *892:hiz *695:13 0.000694012
25 *892:enable_hv *892:trimunit 0.000483987
26 *42:13 *695:9 0.0765011
27 *649:9 *695:13 6.55954e-05
28 *651:9 *695:13 0.0120978
29 *652:29 *695:13 0.000104089
30 *672:21 *695:21 0.000979813
31 *672:39 *695:21 0.00302848
32 *694:7 *695:7 0.00277359
33 *694:21 *695:21 0.00321693
*RES
1 *897:analog_ctrl[16] *695:7 18.3749 
2 *695:7 *695:9 989.49 
3 *695:9 *695:11 15 
4 *695:11 *695:13 156.414 
5 *695:13 *695:19 26.1382 
6 *695:19 *695:21 52.6923 
7 *695:21 *892:trimunit 16.2495 
*END

*D_NET *696 0.285445
*CONN
*I *892:dly_inc I *D CF_ADC_SAR12
*I *897:analog_ctrl[17] O *D soc_sys
*CAP
1 *892:dly_inc 0.000339446
2 *897:analog_ctrl[17] 0.00226452
3 *696:21 0.00515195
4 *696:19 0.00508954
5 *696:13 0.00683942
6 *696:11 0.00656238
7 *696:9 0.0128834
8 *696:7 0.0151479
9 *892:dly_inc *892:icont_lv[1] 0.00013949
10 *892:dly_inc *892:dcen 0
11 *696:7 *697:7 0.00191306
12 *696:7 *702:7 0
13 *696:9 *704:9 0.0760172
14 *696:9 *715:9 0.00018661
15 *696:9 *757:9 0.00195351
16 *696:9 *772:17 0.00493955
17 *696:9 *888:9 0.000129945
18 *696:13 *697:21 0
19 *696:13 *720:13 0
20 *696:13 *723:23 0.00089141
21 *696:13 *724:29 0.000110939
22 *696:13 *724:37 0.000561825
23 *696:13 *728:29 0.000869614
24 *696:13 *775:21 0
25 *696:21 *892:icont_lv[1] 0.000190243
26 *696:21 *725:13 0.0240192
27 *696:21 *775:29 0.000497154
28 *892:hiz *696:13 0.000801243
29 *652:29 *696:13 0.000330466
30 *657:21 *696:9 0.0771583
31 *692:9 *696:9 0
32 *694:21 *696:21 1.12325e-05
33 *695:7 *696:7 0.00222877
34 *695:13 *696:13 0.0139386
35 *695:21 *696:21 0.0242774
*RES
1 *897:analog_ctrl[17] *696:7 17.2587 
2 *696:7 *696:9 987.73 
3 *696:9 *696:11 15 
4 *696:11 *696:13 187.381 
5 *696:13 *696:19 27.1946 
6 *696:19 *696:21 48.7424 
7 *696:21 *892:dly_inc 17.0211 
*END

*D_NET *697 0.291402
*CONN
*I *892:dcen I *D CF_ADC_SAR12
*I *897:analog_ctrl[18] O *D soc_sys
*CAP
1 *892:dcen 0.000108225
2 *897:analog_ctrl[18] 0.00240645
3 *697:29 0.00474644
4 *697:27 0.00469525
5 *697:21 0.00300826
6 *697:19 0.00309698
7 *697:9 0.0256066
8 *697:7 0.0278673
9 *697:7 *698:11 6.39039e-05
10 *697:7 *701:7 0
11 *697:7 *702:7 0
12 *697:9 *718:9 0.0270927
13 *697:9 *735:9 0.00228969
14 *697:9 *781:17 0.0241741
15 *697:19 *892:test_sea 6.0954e-05
16 *697:19 *726:13 0.000131272
17 *697:21 *708:25 0.00140539
18 *697:21 *720:13 0.00219475
19 *697:21 *724:21 0.0107807
20 *697:21 *726:13 0.000504223
21 *697:29 *892:cap_trim[2] 0.000200818
22 *697:29 *892:cap_trim[1] 1.36509e-05
23 *697:29 *892:dft_outc[1] 1.44789e-05
24 *697:29 *892:icont_lv[1] 0.000317627
25 *697:29 *713:13 0.00385595
26 *697:29 *718:21 0.0227186
27 *697:29 *720:29 9.7076e-06
28 *697:29 *724:37 0.00137415
29 *697:29 *726:13 0.0287233
30 *892:hiz *697:27 3.14007e-05
31 *892:dly_inc *892:dcen 0
32 *651:13 *697:19 4.36457e-05
33 *651:21 *697:9 0.00103551
34 *656:13 *697:21 0.00715384
35 *658:21 *697:9 0.073669
36 *691:9 *697:9 0.0100943
37 *696:7 *697:7 0.00191306
38 *696:13 *697:21 0
*RES
1 *897:analog_ctrl[18] *697:7 15.9277 
2 *697:7 *697:9 177.128 
3 *697:9 *697:19 31.9439 
4 *697:19 *697:21 139.739 
5 *697:21 *697:27 24.0254 
6 *697:27 *697:29 55.44 
7 *697:29 *892:dcen 10.5375 
*END

*D_NET *698 0.264194
*CONN
*I *892:pumpclk I *D CF_ADC_SAR12
*I *897:analog_ctrl[19] O *D soc_sys
*CAP
1 *892:pumpclk 0.000346308
2 *897:analog_ctrl[19] 0.000148203
3 *698:21 0.0211312
4 *698:19 0.0207849
5 *698:17 0.0098928
6 *698:15 0.0098928
7 *698:13 0.00688057
8 *698:11 0.00702877
9 *892:pumpclk *892:en_pump_lv 0.000226384
10 *698:11 *700:9 4.90614e-05
11 *698:11 *700:11 2.57016e-05
12 *698:11 *701:7 1.0267e-05
13 *698:13 *699:43 0.000150324
14 *698:13 *699:47 0.000603143
15 *698:13 *699:49 0.000549592
16 *698:13 *700:11 0.0306601
17 *698:13 *703:11 0.00369302
18 *698:13 *703:13 1.52164e-05
19 *698:13 *705:19 0.0266696
20 *698:17 *727:13 0.0379129
21 *698:17 *743:13 0.0461765
22 *698:21 *700:19 0.0412823
23 *72:13 *698:17 0
24 *112:37 *698:11 0
25 *112:37 *698:13 0
26 *697:7 *698:11 6.39039e-05
*RES
1 *897:analog_ctrl[19] *698:11 11.122 
2 *698:11 *698:13 400.884 
3 *698:13 *698:15 8 
4 *698:15 *698:17 85.5363 
5 *698:17 *698:19 8 
6 *698:19 *698:21 100.841 
7 *698:21 *892:pumpclk 19.9698 
*END

*D_NET *699 0.30331
*CONN
*I *895:en_pd I *D CF_BUF_HIZ
*I *897:analog_ctrl[1] O *D soc_sys
*CAP
1 *895:en_pd 0.000121265
2 *897:analog_ctrl[1] 0.000756709
3 *699:63 0.0685597
4 *699:49 0.0902673
5 *699:47 0.0317006
6 *699:43 0.0154207
7 *699:33 0.00637097
8 *699:21 0.00312913
9 *699:19 0.00230724
10 *699:17 0.000756709
11 *699:17 *710:7 4.12918e-05
12 *699:17 *776:11 0
13 *699:21 *700:11 0
14 *699:21 *741:9 0.00315312
15 *699:21 *776:13 0.00849905
16 *699:33 *712:9 2.11157e-05
17 *699:33 *772:7 0.000376256
18 *699:33 *775:7 2.96805e-05
19 *699:43 *700:11 0.000131084
20 *699:43 *703:13 0.000131084
21 *699:43 *705:19 0.000150324
22 *699:43 *706:9 0.000112617
23 *699:43 *722:9 0.000102288
24 *699:43 *758:17 0.000647638
25 *699:47 *700:11 0.000547826
26 *699:47 *703:13 0.000805088
27 *699:47 *705:19 0.000702046
28 *699:47 *706:9 0.000805088
29 *699:47 *722:9 0.000708735
30 *699:47 *773:40 0.000355473
31 *699:47 *773:42 0
32 *699:49 *700:11 0.000734322
33 *699:49 *773:42 0.0132827
34 *895:e_pd *895:en_pd 0
35 *112:37 *699:17 0
36 *112:37 *699:21 0
37 *115:24 *699:63 0.0148811
38 *118:57 *699:17 0.000161905
39 *118:57 *699:21 0.00151474
40 *118:57 *699:43 0.00588437
41 *118:57 *699:47 0.00181244
42 *118:75 *699:49 0.0071494
43 *119:18 *699:63 0.0198074
44 *648:37 *699:17 0
45 *665:7 *699:17 4.72403e-05
46 *676:9 *699:33 2.11157e-05
47 *698:13 *699:43 0.000150324
48 *698:13 *699:47 0.000603143
49 *698:13 *699:49 0.000549592
*RES
1 *897:analog_ctrl[1] *699:17 38.62 
2 *699:17 *699:19 15 
3 *699:19 *699:21 107.901 
4 *699:21 *699:33 45.9219 
5 *699:33 *699:43 26.0619 
6 *699:43 *699:47 27.5035 
7 *699:47 *699:49 87.0613 
8 *699:49 *699:63 38.5815 
9 *699:63 *895:en_pd 17.3873 
*END

*D_NET *700 0.231707
*CONN
*I *892:en_pump_lv I *D CF_ADC_SAR12
*I *897:analog_ctrl[20] O *D soc_sys
*CAP
1 *892:en_pump_lv 0.000150421
2 *897:analog_ctrl[20] 6.99461e-05
3 *700:19 0.0180654
4 *700:17 0.017915
5 *700:15 0.0171866
6 *700:13 0.0171866
7 *700:11 0.00904495
8 *700:9 0.00911489
9 *700:9 *701:7 4.12918e-05
10 *700:11 *705:19 0.000204579
11 *700:11 *722:9 0
12 *700:11 *741:9 0.00134027
13 *700:11 *776:13 0
14 *700:15 *717:15 0
15 *700:15 *733:15 0
16 *700:15 *734:15 0.0095276
17 *700:15 *748:13 0
18 *892:pumpclk *892:en_pump_lv 0.000226384
19 *67:241 *700:11 0.00208105
20 *111:27 *700:15 0
21 *118:75 *700:11 0.0124688
22 *119:22 *700:19 0.00569973
23 *653:14 *700:15 0.0379529
24 *698:11 *700:9 4.90614e-05
25 *698:11 *700:11 2.57016e-05
26 *698:13 *700:11 0.0306601
27 *698:21 *700:19 0.0412823
28 *699:21 *700:11 0
29 *699:43 *700:11 0.000131084
30 *699:47 *700:11 0.000547826
31 *699:49 *700:11 0.000734322
*RES
1 *897:analog_ctrl[20] *700:9 8.77823 
2 *700:9 *700:11 415.674 
3 *700:11 *700:13 8 
4 *700:13 *700:15 85.6221 
5 *700:15 *700:17 8 
6 *700:17 *700:19 98.4293 
7 *700:19 *892:en_pump_lv 18.9014 
*END

*D_NET *701 0.186407
*CONN
*I *892:scan_test_mode I *D CF_ADC_SAR12
*I *897:analog_ctrl[21] O *D soc_sys
*CAP
1 *892:scan_test_mode 0.000212998
2 *897:analog_ctrl[21] 0.00200416
3 *701:17 0.0213403
4 *701:15 0.0274157
5 *701:9 0.0135583
6 *701:7 0.00927395
7 *892:scan_test_mode *892:test_scanin 0.000386062
8 *701:7 *702:7 0.00183703
9 *701:9 *719:9 0.00188572
10 *701:9 *731:9 0.00148409
11 *701:9 *769:9 0.0236993
12 *701:9 *840:21 0.0034453
13 *701:15 *702:23 0.0138897
14 *701:15 *714:27 0.000213398
15 *701:15 *757:29 4.62763e-05
16 *701:15 *760:29 9.4175e-05
17 *701:15 *771:15 0.00100539
18 *701:17 *702:25 0.0426286
19 *701:17 *703:21 0
20 *701:17 *705:27 0
21 *73:21 *701:15 0
22 *646:10 *701:9 0.0208358
23 *648:21 *701:9 0.00109881
24 *693:9 *701:9 0
25 *697:7 *701:7 0
26 *698:11 *701:7 1.0267e-05
27 *700:9 *701:7 4.12918e-05
*RES
1 *897:analog_ctrl[21] *701:7 14.8544 
2 *701:7 *701:9 394.545 
3 *701:9 *701:15 42.46 
4 *701:15 *701:17 101.983 
5 *701:17 *892:scan_test_mode 19.1827 
*END

*D_NET *702 0.201744
*CONN
*I *892:test_scanin I *D CF_ADC_SAR12
*I *897:analog_ctrl[22] O *D soc_sys
*CAP
1 *892:test_scanin 0.000352198
2 *897:analog_ctrl[22] 0.00357512
3 *702:25 0.0137978
4 *702:23 0.0185026
5 *702:13 0.00685114
6 *702:11 0.00182159
7 *702:9 0.00707355
8 *702:7 0.0106212
9 *892:test_scanin *892:test_scanen 8.77075e-05
10 *702:7 *703:7 6.49157e-05
11 *702:7 *704:7 0.0011628
12 *702:7 *707:7 0
13 *702:9 *710:9 0.000493801
14 *702:9 *738:9 0.00021176
15 *702:9 *760:9 0.00115636
16 *702:9 *860:9 0
17 *702:13 *760:9 0.00122017
18 *702:13 *760:19 2.11066e-05
19 *702:23 *714:15 0.0164098
20 *702:23 *760:29 0.000182912
21 *702:23 *771:15 0.00129302
22 *702:25 *714:29 0.0229214
23 *892:scan_test_mode *892:test_scanin 0.000386062
24 *73:21 *702:23 0
25 *671:21 *702:23 0.000328363
26 *679:9 *702:9 0.00398111
27 *679:9 *702:13 0.00431338
28 *694:9 *702:9 0.0222634
29 *694:9 *702:13 0.00429508
30 *696:7 *702:7 0
31 *697:7 *702:7 0
32 *701:7 *702:7 0.00183703
33 *701:15 *702:23 0.0138897
34 *701:17 *702:25 0.0426286
*RES
1 *897:analog_ctrl[22] *702:7 19.9205 
2 *702:7 *702:9 287.162 
3 *702:9 *702:11 0.621429 
4 *702:11 *702:13 105.415 
5 *702:13 *702:23 48.0227 
6 *702:23 *702:25 102.11 
7 *702:25 *892:test_scanin 19.9331 
*END

*D_NET *703 0.155848
*CONN
*I *892:test_scanen I *D CF_ADC_SAR12
*I *897:analog_ctrl[23] O *D soc_sys
*CAP
1 *892:test_scanen 0.000114358
2 *897:analog_ctrl[23] 5.14369e-05
3 *703:21 0.0281987
4 *703:19 0.0318004
5 *703:13 0.00970576
6 *703:11 0.00698479
7 *703:7 0.00104651
8 *892:test_scanen *892:sel_csel_dft[0] 0
9 *703:7 *704:7 6.49157e-05
10 *703:11 *705:9 0.00343852
11 *703:11 *706:9 1.45215e-05
12 *703:13 *705:19 0.0270387
13 *703:13 *706:9 0.0268071
14 *703:13 *722:9 0.000135049
15 *703:19 *705:25 0.0098117
16 *703:19 *706:15 0.00131506
17 *703:21 *731:17 6.99323e-06
18 *703:21 *733:17 0.00449791
19 *703:21 *734:17 0
20 *703:21 *735:17 0
21 *892:test_scanin *892:test_scanen 8.77075e-05
22 *72:13 *703:19 1.88299e-05
23 *112:37 *703:11 0
24 *698:13 *703:11 0.00369302
25 *698:13 *703:13 1.52164e-05
26 *699:43 *703:13 0.000131084
27 *699:47 *703:13 0.000805088
28 *701:17 *703:21 0
29 *702:7 *703:7 6.49157e-05
*RES
1 *897:analog_ctrl[23] *703:7 8.24267 
2 *703:7 *703:11 49.3621 
3 *703:11 *703:13 353.696 
4 *703:13 *703:19 34.9037 
5 *703:19 *703:21 100.079 
6 *703:21 *892:test_scanen 18.2843 
*END

*D_NET *704 0.221754
*CONN
*I *892:test_sea I *D CF_ADC_SAR12
*I *897:analog_ctrl[24] O *D soc_sys
*CAP
1 *892:test_sea 0.00397919
2 *897:analog_ctrl[24] 0.00302388
3 *704:9 0.0165054
4 *704:7 0.0155501
5 *892:test_sea *892:dft_outc[1] 0.00280946
6 *892:test_sea *708:25 0.00455856
7 *892:test_sea *726:13 0.000996657
8 *892:test_sea *776:35 0.00222776
9 *704:7 *705:7 8.66838e-05
10 *704:7 *706:7 1.38508e-05
11 *704:7 *707:7 0
12 *704:9 *715:9 0.0749257
13 *704:9 *757:9 0.00122781
14 *704:9 *758:17 0.000242841
15 *704:9 *772:17 0.00387
16 *704:9 *888:9 0.000574773
17 *892:hiz *892:test_sea 0
18 *648:17 *892:test_sea 2.03342e-05
19 *656:23 *892:test_sea 0.00282879
20 *687:21 *892:test_sea 0.00763315
21 *691:21 *892:test_sea 0.00275011
22 *692:9 *704:9 0.000350341
23 *693:19 *892:test_sea 0.000272279
24 *696:9 *704:9 0.0760172
25 *697:19 *892:test_sea 6.0954e-05
26 *702:7 *704:7 0.0011628
27 *703:7 *704:7 6.49157e-05
*RES
1 *897:analog_ctrl[24] *704:7 17.3445 
2 *704:7 *704:9 972.764 
3 *704:9 *892:test_sea 43.5 
*END

*D_NET *705 0.185805
*CONN
*I *892:resolution[0] I *D CF_ADC_SAR12
*I *897:analog_ctrl[25] O *D soc_sys
*CAP
1 *892:resolution[0] 0.000111256
2 *897:analog_ctrl[25] 8.02778e-05
3 *705:27 0.0206627
4 *705:25 0.0234255
5 *705:19 0.00885741
6 *705:17 0.00609692
7 *705:9 0.000985845
8 *705:7 0.000952612
9 *892:resolution[0] *892:sample_width[6] 2.37336e-05
10 *892:resolution[0] *892:resolution[1] 8.38966e-05
11 *705:7 *706:7 8.32866e-05
12 *705:9 *706:9 0.00333171
13 *705:19 *722:9 1.33927e-05
14 *705:25 *706:15 0
15 *705:27 *706:17 0.0418082
16 *72:13 *705:25 0.0111519
17 *112:37 *705:9 3.38806e-05
18 *698:13 *705:19 0.0266696
19 *699:43 *705:19 0.000150324
20 *699:47 *705:19 0.000702046
21 *700:11 *705:19 0.000204579
22 *701:17 *705:27 0
23 *703:11 *705:9 0.00343852
24 *703:13 *705:19 0.0270387
25 *703:19 *705:25 0.0098117
26 *704:7 *705:7 8.66838e-05
*RES
1 *897:analog_ctrl[25] *705:7 8.32853 
2 *705:7 *705:9 45.3954 
3 *705:9 *705:17 31.8229 
4 *705:17 *705:19 353.872 
5 *705:19 *705:25 37.3939 
6 *705:25 *705:27 99.9525 
7 *705:27 *892:resolution[0] 18.2843 
*END

*D_NET *706 0.180456
*CONN
*I *892:resolution[1] I *D CF_ADC_SAR12
*I *897:analog_ctrl[26] O *D soc_sys
*CAP
1 *892:resolution[1] 0.000141422
2 *897:analog_ctrl[26] 9.70002e-05
3 *706:17 0.018089
4 *706:15 0.022187
5 *706:9 0.0110641
6 *706:7 0.00692158
7 *892:resolution[1] *892:sample_width[6] 4.93791e-05
8 *706:7 *707:7 0.000108452
9 *706:9 *722:9 0.0286734
10 *706:15 *727:13 0.0111591
11 *706:17 *714:29 0
12 *892:resolution[0] *892:resolution[1] 8.38966e-05
13 *112:37 *706:9 0.000730052
14 *663:21 *706:17 0.00685984
15 *699:43 *706:9 0.000112617
16 *699:47 *706:9 0.000805088
17 *703:11 *706:9 1.45215e-05
18 *703:13 *706:9 0.0268071
19 *703:19 *706:15 0.00131506
20 *704:7 *706:7 1.38508e-05
21 *705:7 *706:7 8.32866e-05
22 *705:9 *706:9 0.00333171
23 *705:25 *706:15 0
24 *705:27 *706:17 0.0418082
*RES
1 *897:analog_ctrl[26] *706:7 8.4144 
2 *706:7 *706:9 394.545 
3 *706:9 *706:15 37.3939 
4 *706:15 *706:17 100.587 
5 *706:17 *892:resolution[1] 18.9886 
*END

*D_NET *707 0.225076
*CONN
*I *892:sample_width[0] I *D CF_ADC_SAR12
*I *897:analog_ctrl[27] O *D soc_sys
*CAP
1 *892:sample_width[0] 0.000404143
2 *897:analog_ctrl[27] 0.00354919
3 *707:13 0.00555205
4 *707:9 0.023428
5 *707:7 0.0218293
6 *892:sample_width[0] *892:sample_width[1] 3.32339e-05
7 *707:7 *708:7 0.0011047
8 *707:7 *709:7 0.000466437
9 *707:7 *713:7 0
10 *707:9 *746:9 0
11 *707:9 *781:9 0.00015894
12 *707:9 *784:9 0.0582504
13 *707:9 *890:9 0
14 *707:13 *713:13 0
15 *707:13 *725:13 0.000637332
16 *707:13 *728:29 0.000111907
17 *707:13 *775:21 0.00235705
18 *42:13 *707:9 8.48805e-05
19 *652:13 *707:13 0.000138791
20 *652:29 *707:13 2.26122e-05
21 *657:19 *707:13 0.00483328
22 *658:19 *707:13 0.00934842
23 *672:19 *707:13 9.22365e-05
24 *672:21 *707:13 0.000140539
25 *694:21 *707:13 0.0130767
26 *695:9 *707:9 0.0753023
27 *695:21 *707:13 0.00404523
28 *702:7 *707:7 0
29 *704:7 *707:7 0
30 *706:7 *707:7 0.000108452
*RES
1 *897:analog_ctrl[27] *707:7 18.4608 
2 *707:7 *707:9 976.285 
3 *707:9 *707:13 43.9483 
4 *707:13 *892:sample_width[0] 15.6436 
*END

*D_NET *708 0.225391
*CONN
*I *892:sample_width[1] I *D CF_ADC_SAR12
*I *897:analog_ctrl[28] O *D soc_sys
*CAP
1 *892:sample_width[1] 0.00101661
2 *897:analog_ctrl[28] 0.000910487
3 *708:25 0.00425376
4 *708:9 0.0163851
5 *708:7 0.0140584
6 *892:sample_width[1] *892:sample_width[5] 0
7 *892:sample_width[1] *892:dft_outc[1] 0.000753259
8 *892:sample_width[1] *720:29 0.00159004
9 *892:sample_width[1] *726:13 0.00452251
10 *892:sample_width[1] *776:35 3.64335e-05
11 *708:7 *709:7 0.000989232
12 *708:9 *723:9 0.0740361
13 *708:9 *759:9 0.00168406
14 *708:9 *791:9 0.000448151
15 *708:25 *892:dft_outc[1] 0.00137838
16 *708:25 *724:21 0.00316495
17 *708:25 *726:13 0.0110879
18 *892:hiz *708:25 1.36684e-05
19 *892:test_sea *708:25 0.00455856
20 *892:sample_width[0] *892:sample_width[1] 3.32339e-05
21 *670:9 *708:9 1.28687e-05
22 *687:9 *708:9 0.075377
23 *687:21 *892:sample_width[1] 1.5336e-05
24 *687:21 *708:25 0.00655447
25 *697:21 *708:25 0.00140539
26 *707:7 *708:7 0.0011047
*RES
1 *897:analog_ctrl[28] *708:7 12.1067 
2 *708:7 *708:9 968.538 
3 *708:9 *708:25 48.73 
4 *708:25 *892:sample_width[1] 17.1189 
*END

*D_NET *709 0.185389
*CONN
*I *892:sample_width[2] I *D CF_ADC_SAR12
*I *897:analog_ctrl[29] O *D soc_sys
*CAP
1 *892:sample_width[2] 0.000384117
2 *897:analog_ctrl[29] 0.00219911
3 *709:17 0.019854
4 *709:15 0.0289647
5 *709:9 0.0174467
6 *709:7 0.010151
7 *892:sample_width[2] *892:sample_width[3] 0.000690767
8 *892:sample_width[2] *892:sample_width[4] 1.21654e-05
9 *709:7 *711:7 0.00129661
10 *709:7 *713:7 0
11 *709:9 *735:9 0.0263666
12 *709:9 *852:13 0
13 *709:9 *891:9 0
14 *709:15 *718:13 0.000146845
15 *709:15 *735:15 0.00546953
16 *709:17 *711:21 0.0425714
17 *709:17 *712:17 0.00466297
18 *897:wbs_dat_i[29] *709:15 0.000447334
19 *897:wbs_dat_i[30] *709:15 0.000658821
20 *15:15 *709:17 6.87771e-06
21 *76:57 *709:15 0
22 *563:19 *709:17 9.97439e-05
23 *628:12 *709:15 0.00038241
24 *628:14 *709:17 1.30358e-05
25 *632:16 *709:15 0.000996233
26 *651:13 *709:9 0.0179591
27 *658:21 *709:9 0.00188572
28 *691:9 *709:9 0.00126774
29 *707:7 *709:7 0.000466437
30 *708:7 *709:7 0.000989232
*RES
1 *897:analog_ctrl[29] *709:7 15.8848 
2 *709:7 *709:9 373.416 
3 *709:9 *709:15 49.8445 
4 *709:15 *709:17 103.126 
5 *709:17 *892:sample_width[2] 22.5785 
*END

*D_NET *710 0.324942
*CONN
*I *895:tp I *D CF_BUF_HIZ
*I *897:analog_ctrl[2] O *D soc_sys
*CAP
1 *895:tp 0
2 *897:analog_ctrl[2] 0.00334286
3 *710:29 0.0211556
4 *710:27 0.0212861
5 *710:21 0.00537156
6 *710:19 0.00535433
7 *710:13 0.016301
8 *710:11 0.0161877
9 *710:9 0.0263124
10 *710:7 0.0296553
11 *710:7 *721:7 0.00283499
12 *710:9 *720:9 0.00809489
13 *710:9 *726:9 0
14 *710:9 *730:9 0.000373284
15 *710:9 *738:9 0.00108328
16 *710:9 *755:9 0.0499311
17 *710:9 *760:9 0.0236239
18 *710:9 *860:9 0.000601648
19 *710:9 *861:9 0.00262332
20 *710:13 *721:23 0.00886225
21 *710:13 *732:13 0.0429321
22 *710:19 *732:19 0.000213945
23 *710:21 *732:21 0.0169794
24 *710:29 *732:29 0.006615
25 *895:vinp_na *710:29 0.00443214
26 *24:25 *710:29 0.00283631
27 *665:7 *710:7 0.000499439
28 *679:9 *710:9 0.000961026
29 *680:9 *710:9 0.000961026
30 *694:9 *710:9 0.00498147
31 *699:17 *710:7 4.12918e-05
32 *702:9 *710:9 0.000493801
*RES
1 *897:analog_ctrl[2] *710:7 19.7059 
2 *710:7 *710:9 136.89 
3 *710:9 *710:11 8 
4 *710:11 *710:13 79.6973 
5 *710:13 *710:19 26.1382 
6 *710:19 *710:21 184.999 
7 *710:21 *710:27 25.7861 
8 *710:27 *710:29 87.0716 
9 *710:29 *895:tp 23 
*END

*D_NET *711 0.192426
*CONN
*I *892:sample_width[3] I *D CF_ADC_SAR12
*I *897:analog_ctrl[30] O *D soc_sys
*CAP
1 *892:sample_width[3] 0.000531518
2 *897:analog_ctrl[30] 0.0014229
3 *711:21 0.0195542
4 *711:19 0.0233434
5 *711:9 0.0143802
6 *711:7 0.0114824
7 *892:sample_width[3] *892:sample_width[4] 7.18671e-05
8 *892:sample_width[3] *892:sample_width[6] 0
9 *711:7 *712:7 0.000227459
10 *711:7 *713:7 0.00045385
11 *711:9 *736:9 0.000251792
12 *711:9 *747:9 0
13 *711:9 *788:13 0.0101045
14 *711:9 *881:9 0.000720587
15 *711:19 *712:15 0.000355264
16 *711:19 *714:15 0.000204731
17 *711:19 *716:15 0.0137817
18 *711:19 *718:13 0.00026597
19 *711:19 *759:19 3.3405e-05
20 *711:19 *762:17 0.000229945
21 *711:19 *771:15 0.00292013
22 *892:sample_width[2] *892:sample_width[3] 0.000690767
23 *15:15 *711:21 0.00509583
24 *78:21 *711:19 0.000129907
25 *650:17 *711:9 0.0182955
26 *656:25 *711:9 0.00539061
27 *665:13 *711:19 0.0159764
28 *671:19 *711:19 0.00111639
29 *672:9 *711:9 0.00152649
30 *709:7 *711:7 0.00129661
31 *709:17 *711:21 0.0425714
*RES
1 *897:analog_ctrl[30] *711:7 13.3947 
2 *711:7 *711:9 376.234 
3 *711:9 *711:19 48.0189 
4 *711:19 *711:21 101.857 
5 *711:21 *892:sample_width[3] 23.6263 
*END

*D_NET *712 0.133521
*CONN
*I *892:sample_width[4] I *D CF_ADC_SAR12
*I *897:analog_ctrl[31] O *D soc_sys
*CAP
1 *892:sample_width[4] 0.00028016
2 *897:analog_ctrl[31] 0.000311594
3 *712:17 0.0295087
4 *712:15 0.0331203
5 *712:9 0.0174435
6 *712:7 0.0138633
7 *892:sample_width[4] *892:sample_width[6] 0
8 *712:7 *713:7 0.000224195
9 *712:9 *741:19 2.05503e-05
10 *712:9 *749:9 0
11 *712:9 *750:9 0
12 *712:9 *751:9 0
13 *712:9 *752:9 0.00703553
14 *712:9 *754:9 0
15 *712:9 *874:11 0.00017498
16 *712:9 *878:11 0.000271673
17 *712:9 *880:11 0.000186131
18 *712:15 *716:15 0.0129909
19 *712:15 *718:13 0.00652831
20 *712:17 *716:17 0
21 *892:sample_width[3] *892:sample_width[4] 7.18671e-05
22 *892:sample_width[2] *892:sample_width[4] 1.21654e-05
23 *15:15 *712:17 0
24 *67:233 *712:9 0.000458395
25 *78:21 *712:15 0.000414036
26 *104:26 *712:9 0
27 *648:33 *712:9 2.11157e-05
28 *676:9 *712:9 0.00531642
29 *699:33 *712:9 2.11157e-05
30 *709:17 *712:17 0.00466297
31 *711:7 *712:7 0.000227459
32 *711:19 *712:15 0.000355264
*RES
1 *897:analog_ctrl[31] *712:7 9.01547 
2 *712:7 *712:9 375.529 
3 *712:9 *712:15 42.2883 
4 *712:15 *712:17 102.872 
5 *712:17 *892:sample_width[4] 19.2418 
*END

*D_NET *713 0.154676
*CONN
*I *892:sample_width[5] I *D CF_ADC_SAR12
*I *897:analog_ctrl[32] O *D soc_sys
*CAP
1 *892:sample_width[5] 0.000184898
2 *897:analog_ctrl[32] 0.00461911
3 *713:13 0.00563233
4 *713:9 0.0448651
5 *713:7 0.0440368
6 *892:sample_width[5] *892:sample_width[7] 0
7 *713:7 *714:7 0.00302384
8 *713:9 *800:9 0.00321078
9 *713:9 *807:9 0
10 *713:9 *814:9 0
11 *713:9 *830:13 0.000436886
12 *713:9 *862:9 0.000643683
13 *713:9 *886:9 0
14 *713:9 *889:9 0.0136542
15 *713:13 *719:19 0.00564814
16 *713:13 *720:27 0.00167689
17 *713:13 *724:37 0.00563269
18 *713:13 *725:13 0
19 *713:13 *726:13 0.00251795
20 *713:13 *728:29 0.00165492
21 *892:sample_width[1] *892:sample_width[5] 0
22 *892:hiz *713:13 0.000160724
23 *892:iso_en *713:13 0.00283523
24 *67:217 *713:9 0
25 *647:21 *713:13 4.51815e-05
26 *648:17 *713:13 0.000805542
27 *677:9 *713:9 0
28 *682:9 *713:9 0
29 *689:9 *713:9 0
30 *690:9 *713:9 0
31 *691:21 *713:13 0.00885701
32 *697:29 *713:13 0.00385595
33 *707:7 *713:7 0
34 *707:13 *713:13 0
35 *709:7 *713:7 0
36 *711:7 *713:7 0.00045385
37 *712:7 *713:7 0.000224195
*RES
1 *897:analog_ctrl[32] *713:7 22.1531 
2 *713:7 *713:9 965.016 
3 *713:9 *713:13 46.696 
4 *713:13 *892:sample_width[5] 11.4179 
*END

*D_NET *714 0.176614
*CONN
*I *892:sample_width[6] I *D CF_ADC_SAR12
*I *897:analog_ctrl[33] O *D soc_sys
*CAP
1 *892:sample_width[6] 0.00160356
2 *897:analog_ctrl[33] 0.00346206
3 *714:29 0.0212954
4 *714:27 0.0201056
5 *714:15 0.0062412
6 *714:9 0.0190491
7 *714:7 0.0166836
8 *892:sample_width[6] *892:sample_width[8] 2.37336e-05
9 *892:sample_width[6] *892:sample_width[9] 2.37336e-05
10 *714:7 *715:7 0.0024805
11 *714:9 *726:9 0.0037467
12 *714:9 *815:9 0
13 *714:9 *816:9 0.00099314
14 *714:9 *818:9 0
15 *714:9 *821:9 0.00350333
16 *714:9 *822:13 0.0104914
17 *714:9 *825:21 0
18 *714:15 *718:13 0
19 *714:15 *757:19 5.58233e-05
20 *714:15 *759:19 0.000134228
21 *714:15 *760:19 2.24267e-05
22 *714:15 *771:15 0.00160203
23 *714:27 *757:29 0.000318291
24 *892:sample_width[3] *892:sample_width[6] 0
25 *892:sample_width[4] *892:sample_width[6] 0
26 *892:resolution[0] *892:sample_width[6] 2.37336e-05
27 *892:resolution[1] *892:sample_width[6] 4.93791e-05
28 *73:21 *714:15 0
29 *73:21 *714:27 0.00012076
30 *663:21 *714:29 0.010056
31 *665:13 *714:15 0.000415921
32 *671:21 *714:15 0.0113392
33 *680:9 *714:9 0
34 *689:9 *714:9 0
35 *701:15 *714:27 0.000213398
36 *702:23 *714:15 0.0164098
37 *702:25 *714:29 0.0229214
38 *706:17 *714:29 0
39 *711:19 *714:15 0.000204731
40 *713:7 *714:7 0.00302384
*RES
1 *897:analog_ctrl[33] *714:7 20.8651 
2 *714:7 *714:9 376.234 
3 *714:9 *714:15 47.9984 
4 *714:15 *714:27 19.5403 
5 *714:27 *714:29 101.476 
6 *714:29 *892:sample_width[6] 23.9003 
*END

*D_NET *715 0.222397
*CONN
*I *892:sample_width[7] I *D CF_ADC_SAR12
*I *897:analog_ctrl[34] O *D soc_sys
*CAP
1 *892:sample_width[7] 0.000650247
2 *897:analog_ctrl[34] 0.00278689
3 *715:15 0.00754026
4 *715:9 0.0195977
5 *715:7 0.0154946
6 *715:7 *716:7 0.000463219
7 *715:7 *718:7 0
8 *715:7 *720:7 0
9 *715:9 *728:9 0.0741035
10 *715:9 *757:9 0.0011152
11 *715:9 *758:17 0.00021176
12 *715:9 *758:25 0
13 *715:9 *772:17 0.00387
14 *715:9 *888:9 0.000659135
15 *715:15 *730:13 0.0176023
16 *715:15 *782:17 0
17 *892:sample_width[5] *892:sample_width[7] 0
18 *42:13 *715:9 0
19 *657:21 *715:9 3.73664e-05
20 *692:9 *715:9 0.00067203
21 *696:9 *715:9 0.00018661
22 *704:9 *715:9 0.0749257
23 *714:7 *715:7 0.0024805
*RES
1 *897:analog_ctrl[34] *715:7 17.4304 
2 *715:7 *715:9 969.946 
3 *715:9 *715:15 49.6299 
4 *715:15 *892:sample_width[7] 10.6368 
*END

*D_NET *716 0.192288
*CONN
*I *892:sample_width[8] I *D CF_ADC_SAR12
*I *897:analog_ctrl[35] O *D soc_sys
*CAP
1 *892:sample_width[8] 0.000151514
2 *897:analog_ctrl[35] 0.000548755
3 *716:17 0.0221597
4 *716:15 0.0251694
5 *716:9 0.00935596
6 *716:7 0.00674358
7 *892:sample_width[8] *892:sample_width[9] 2.19544e-05
8 *716:7 *717:7 0.000438255
9 *716:7 *718:7 9.59031e-06
10 *716:9 *717:9 0.0283092
11 *716:9 *727:9 0.0273441
12 *716:9 *743:9 5.26984e-05
13 *716:9 *819:9 0.000346093
14 *716:15 *718:13 0.000102655
15 *716:15 *771:15 0.00205304
16 *716:17 *717:17 0.0408301
17 *892:sample_width[6] *892:sample_width[8] 2.37336e-05
18 *103:39 *716:9 0.00139163
19 *711:19 *716:15 0.0137817
20 *712:15 *716:15 0.0129909
21 *712:17 *716:17 0
22 *715:7 *716:7 0.000463219
*RES
1 *897:analog_ctrl[35] *716:7 9.87413 
2 *716:7 *716:9 370.599 
3 *716:9 *716:15 41.7731 
4 *716:15 *716:17 102.745 
5 *716:17 *892:sample_width[8] 18.9109 
*END

*D_NET *717 0.20345
*CONN
*I *892:sample_width[9] I *D CF_ADC_SAR12
*I *897:analog_ctrl[36] O *D soc_sys
*CAP
1 *892:sample_width[9] 0.000143715
2 *897:analog_ctrl[36] 0.000528764
3 *717:17 0.0274752
4 *717:15 0.0308993
5 *717:9 0.010548
6 *717:7 0.00750891
7 *717:7 *718:7 0.000438255
8 *717:9 *727:9 0.000378615
9 *717:9 *743:9 0.0289844
10 *717:9 *748:9 0.000199665
11 *717:9 *754:9 0.000781712
12 *717:9 *763:9 0
13 *717:15 *733:15 0.0105128
14 *892:sample_width[6] *892:sample_width[9] 2.37336e-05
15 *892:sample_width[8] *892:sample_width[9] 2.19544e-05
16 *103:39 *717:9 0.00180402
17 *111:27 *717:15 0.0136239
18 *700:15 *717:15 0
19 *716:7 *717:7 0.000438255
20 *716:9 *717:9 0.0283092
21 *716:17 *717:17 0.0408301
*RES
1 *897:analog_ctrl[36] *717:7 9.78827 
2 *717:7 *717:9 398.771 
3 *717:9 *717:15 41.5155 
4 *717:15 *717:17 97.4139 
5 *717:17 *892:sample_width[9] 18.6571 
*END

*D_NET *718 0.234427
*CONN
*I *892:cap_trim[0] I *D CF_ADC_SAR12
*I *897:analog_ctrl[37] O *D soc_sys
*CAP
1 *892:cap_trim[0] 8.80856e-05
2 *897:analog_ctrl[37] 0.00244957
3 *718:21 0.00319833
4 *718:17 0.0358178
5 *718:15 0.0327075
6 *718:13 0.00760119
7 *718:9 0.0173151
8 *718:7 0.0121635
9 *892:cap_trim[0] *892:cap_trim[1] 0.000205694
10 *718:7 *719:7 0.00177337
11 *718:7 *720:7 0.000153829
12 *718:9 *741:25 0.000181928
13 *718:9 *757:9 0
14 *718:9 *772:17 0
15 *718:9 *781:17 0.0170345
16 *718:9 *848:23 0.000766365
17 *718:13 *735:15 0.000860538
18 *718:21 *892:cap_trim[1] 0.000242308
19 *718:21 *724:37 0.0222621
20 *892:enable_hv *892:cap_trim[0] 9.73793e-05
21 *897:wbs_adr_i[28] *718:13 9.44899e-05
22 *897:wbs_adr_i[29] *718:13 4.93791e-05
23 *897:wbs_adr_i[30] *718:13 9.44899e-05
24 *897:wbs_adr_i[31] *718:13 4.93791e-05
25 *897:wbs_dat_i[28] *718:13 9.44899e-05
26 *897:wbs_dat_i[29] *718:13 0.00138669
27 *897:wbs_dat_i[30] *718:13 0.000938755
28 *897:wbs_dat_i[31] *718:13 0.000671182
29 *78:21 *718:13 0.00250484
30 *627:8 *718:13 4.93791e-05
31 *628:12 *718:13 0.00120081
32 *629:8 *718:13 0.000671182
33 *631:8 *718:13 0.000687044
34 *632:16 *718:13 0.000863933
35 *651:21 *718:9 0.0096975
36 *671:19 *718:13 0.000292608
37 *676:23 *718:13 0.00285878
38 *697:9 *718:9 0.0270927
39 *697:29 *718:21 0.0227186
40 *709:15 *718:13 0.000146845
41 *711:19 *718:13 0.00026597
42 *712:15 *718:13 0.00652831
43 *714:15 *718:13 0
44 *715:7 *718:7 0
45 *716:7 *718:7 9.59031e-06
46 *716:15 *718:13 0.000102655
47 *717:7 *718:7 0.000438255
*RES
1 *897:analog_ctrl[37] *718:7 16.0995 
2 *718:7 *718:9 65.9344 
3 *718:9 *718:13 45.3221 
4 *718:13 *718:15 8 
5 *718:15 *718:17 106.807 
6 *718:17 *718:21 49.5725 
7 *718:21 *892:cap_trim[0] 11.392 
*END

*D_NET *719 0.278475
*CONN
*I *892:cap_trim[1] I *D CF_ADC_SAR12
*I *897:analog_ctrl[38] O *D soc_sys
*CAP
1 *892:cap_trim[1] 0.00107019
2 *897:analog_ctrl[38] 0.00153981
3 *719:21 0.00684494
4 *719:19 0.00733936
5 *719:9 0.0415961
6 *719:7 0.0415713
7 *892:cap_trim[1] *892:cap_trim[2] 5.86746e-05
8 *892:cap_trim[1] *892:icont_lv[1] 0.00432913
9 *892:cap_trim[1] *724:37 0.00398564
10 *719:7 *720:7 0.00176638
11 *719:9 *731:9 0.0097111
12 *719:9 *740:9 0.00579326
13 *719:9 *769:9 0.000348962
14 *719:9 *824:21 0.0131787
15 *719:19 *728:29 0.00248366
16 *719:21 *892:dft_outc[0] 0.004515
17 *719:21 *723:13 0.00116968
18 *719:21 *723:23 5.86026e-05
19 *719:21 *728:37 0.00944017
20 *892:hiz *719:21 0.0024054
21 *892:cap_trim[0] *892:cap_trim[1] 0.000205694
22 *892:enable_hv *892:cap_trim[1] 3.66832e-05
23 *646:10 *719:9 0.0106508
24 *648:21 *719:9 0.0108936
25 *650:13 *719:21 0.00134211
26 *652:29 *719:19 0.00300112
27 *652:33 *719:9 0.0386265
28 *658:21 *719:9 0
29 *672:35 *719:21 0.0142289
30 *694:21 *719:21 0.0307208
31 *697:29 *892:cap_trim[1] 1.36509e-05
32 *701:9 *719:9 0.00188572
33 *713:13 *719:19 0.00564814
34 *718:7 *719:7 0.00177337
35 *718:21 *892:cap_trim[1] 0.000242308
*RES
1 *897:analog_ctrl[38] *719:7 14.7256 
2 *719:7 *719:9 172.558 
3 *719:9 *719:19 36.9184 
4 *719:19 *719:21 58.3595 
5 *719:21 *892:cap_trim[1] 41.0946 
*END

*D_NET *720 0.25676
*CONN
*I *892:cap_trim[2] I *D CF_ADC_SAR12
*I *897:analog_ctrl[39] O *D soc_sys
*CAP
1 *892:cap_trim[2] 0.000392499
2 *897:analog_ctrl[39] 0.00396297
3 *720:29 0.00644399
4 *720:27 0.00668815
5 *720:13 0.00570881
6 *720:11 0.00507216
7 *720:9 0.0185917
8 *720:7 0.0225547
9 *720:7 *722:7 0.00013022
10 *720:7 *723:7 0.000471779
11 *720:7 *724:7 0
12 *720:9 *730:9 0.0736801
13 *720:9 *755:9 0.000883699
14 *720:9 *844:17 0
15 *720:13 *724:21 0.000735992
16 *720:13 *724:29 7.28145e-05
17 *720:13 *726:13 0.00161357
18 *720:27 *726:13 0.00167196
19 *720:29 *892:pd 0.000239498
20 *720:29 *892:dft_outc[1] 0.00735995
21 *720:29 *726:13 0.00672806
22 *720:29 *776:35 0.0278199
23 *892:sample_width[1] *720:29 0.00159004
24 *892:cap_trim[1] *892:cap_trim[2] 5.86746e-05
25 *656:13 *720:13 0.00715384
26 *657:7 *720:27 8.22421e-06
27 *694:9 *720:9 0.0430296
28 *695:13 *720:13 0
29 *696:13 *720:13 0
30 *697:21 *720:13 0.00219475
31 *697:29 *892:cap_trim[2] 0.000200818
32 *697:29 *720:29 9.7076e-06
33 *710:9 *720:9 0.00809489
34 *713:13 *720:27 0.00167689
35 *715:7 *720:7 0
36 *718:7 *720:7 0.000153829
37 *719:7 *720:7 0.00176638
*RES
1 *897:analog_ctrl[39] *720:7 19.7488 
2 *720:7 *720:9 954.276 
3 *720:9 *720:11 15 
4 *720:11 *720:13 144.503 
5 *720:13 *720:27 43.116 
6 *720:27 *720:29 52.9499 
7 *720:29 *892:cap_trim[2] 9.95185 
*END

*D_NET *721 0.338968
*CONN
*I *895:clk2_boost I *D CF_BUF_HIZ
*I *897:analog_ctrl[3] O *D soc_sys
*CAP
1 *895:clk2_boost 4.80303e-05
2 *897:analog_ctrl[3] 0.00388184
3 *721:23 0.0823636
4 *721:9 0.104909
5 *721:7 0.0264752
6 *721:7 *732:7 0.00363746
7 *721:9 *724:9 0.00192559
8 *721:9 *725:9 0.0287944
9 *721:9 *732:9 0.000457789
10 *721:9 *778:9 0.0260518
11 *721:9 *802:9 0.00381617
12 *721:9 *807:9 0.000483753
13 *721:9 *828:17 0.00141561
14 *721:9 *831:13 0.00381617
15 *721:9 *837:13 0.000590181
16 *721:9 *863:9 0.00312608
17 *721:9 *867:9 0.00311599
18 *721:9 *886:9 0.000483753
19 *721:23 *895:clk1_boostr 6.71419e-05
20 *721:23 *732:13 0.0146709
21 *721:23 *732:29 0.0169273
22 *895:vinp_n *721:23 6.66347e-05
23 *895:vinp_na *895:clk2_boost 6.74949e-05
24 *895:vinn_na *721:23 5.61103e-05
25 *12:27 *721:23 0
26 *24:25 *721:23 2.33476e-05
27 *710:7 *721:7 0.00283499
28 *710:13 *721:23 0.00886225
*RES
1 *897:analog_ctrl[3] *721:7 23.1405 
2 *721:7 *721:9 136.763 
3 *721:9 *721:23 47.9172 
4 *721:23 *895:clk2_boost 16.0254 
*END

*D_NET *722 0.200292
*CONN
*I *892:icont_lv[0] I *D CF_ADC_SAR12
*I *897:analog_ctrl[40] O *D soc_sys
*CAP
1 *892:icont_lv[0] 0.000160064
2 *897:analog_ctrl[40] 0.000119268
3 *722:17 0.0289882
4 *722:15 0.0288282
5 *722:13 0.0143708
6 *722:11 0.0143708
7 *722:9 0.00710403
8 *722:7 0.00722329
9 *722:7 *723:7 0.00013022
10 *722:13 *754:13 0.0388402
11 *722:17 *759:33 0
12 *112:37 *722:9 0.0303943
13 *118:75 *722:9 0
14 *661:23 *722:17 0
15 *699:43 *722:9 0.000102288
16 *699:47 *722:9 0.000708735
17 *700:11 *722:9 0
18 *703:13 *722:9 0.000135049
19 *705:19 *722:9 1.33927e-05
20 *706:9 *722:9 0.0286734
21 *720:7 *722:7 0.00013022
*RES
1 *897:analog_ctrl[40] *722:7 8.50027 
2 *722:7 *722:9 397.362 
3 *722:9 *722:11 8 
4 *722:11 *722:13 73.8584 
5 *722:13 *722:15 8 
6 *722:15 *722:17 96.6523 
7 *722:17 *892:icont_lv[0] 18.6986 
*END

*D_NET *723 0.244331
*CONN
*I *892:icont_lv[1] I *D CF_ADC_SAR12
*I *897:analog_ctrl[41] O *D soc_sys
*CAP
1 *892:icont_lv[1] 0.00155048
2 *897:analog_ctrl[41] 0.00102797
3 *723:23 0.00545591
4 *723:19 0.00405343
5 *723:13 0.00213411
6 *723:11 0.00198611
7 *723:9 0.0225359
8 *723:7 0.0235639
9 *892:icont_lv[1] *892:dft_outc[0] 0.00377772
10 *892:icont_lv[1] *724:37 2.1933e-05
11 *723:7 *724:7 0.00111044
12 *723:9 *739:9 0.000652676
13 *723:9 *759:9 0.000886081
14 *723:9 *770:17 0.000669076
15 *723:9 *791:9 0.00353168
16 *723:13 *775:21 0.000497404
17 *723:23 *892:dft_outc[0] 0.00463687
18 *723:23 *724:37 0.025015
19 *723:23 *728:37 0.00514228
20 *892:hiz *723:19 9.83712e-06
21 *892:cap_trim[1] *892:icont_lv[1] 0.00432913
22 *892:dly_inc *892:icont_lv[1] 0.00013949
23 *649:9 *723:13 4.53082e-05
24 *650:13 *723:13 0.0102836
25 *652:13 *723:13 0.00798573
26 *657:9 *723:13 2.33782e-05
27 *657:19 *723:13 0.000110155
28 *670:9 *723:9 0
29 *671:9 *723:9 0.0208849
30 *672:21 *723:13 5.6287e-05
31 *672:35 *723:23 0.0142289
32 *694:21 *892:icont_lv[1] 0.000233335
33 *694:21 *723:13 0.000382331
34 *695:13 *723:13 0.000104036
35 *696:13 *723:23 0.00089141
36 *696:21 *892:icont_lv[1] 0.000190243
37 *697:29 *892:icont_lv[1] 0.000317627
38 *708:9 *723:9 0.0740361
39 *719:21 *723:13 0.00116968
40 *719:21 *723:23 5.86026e-05
41 *720:7 *723:7 0.000471779
42 *722:7 *723:7 0.00013022
*RES
1 *897:analog_ctrl[41] *723:7 12.1925 
2 *723:7 *723:9 955.685 
3 *723:9 *723:11 15 
4 *723:11 *723:13 116.394 
5 *723:13 *723:19 25.0818 
6 *723:19 *723:23 45.9629 
7 *723:23 *892:icont_lv[1] 24.3794 
*END

*D_NET *724 0.285502
*CONN
*I *892:dft_inc[0] I *D CF_ADC_SAR12
*I *897:analog_ctrl[42] O *D soc_sys
*CAP
1 *892:dft_inc[0] 9.50521e-05
2 *897:analog_ctrl[42] 0.00495904
3 *724:37 0.004449
4 *724:35 0.00437442
5 *724:29 0.000322109
6 *724:21 0.00608549
7 *724:19 0.00593759
8 *724:9 0.0235217
9 *724:7 0.028327
10 *892:dft_inc[0] *892:dft_inc[1] 0.000295589
11 *892:dft_inc[0] *892:dft_outc[2] 0.000266136
12 *724:7 *725:7 0.00380186
13 *724:9 *732:9 0.053088
14 *724:9 *778:9 0.0664946
15 *724:9 *806:17 0.000381617
16 *724:9 *811:9 0.00200064
17 *724:9 *855:9 0.00175185
18 *724:21 *726:13 0.000890458
19 *724:37 *728:37 3.07752e-05
20 *892:hiz *724:37 0.00147527
21 *892:iso_en *724:29 0.000178207
22 *892:cap_trim[1] *724:37 0.00398564
23 *892:icont_lv[1] *724:37 2.1933e-05
24 *657:7 *724:35 2.11157e-05
25 *696:13 *724:29 0.000110939
26 *696:13 *724:37 0.000561825
27 *697:21 *724:21 0.0107807
28 *697:29 *724:37 0.00137415
29 *708:25 *724:21 0.00316495
30 *713:13 *724:37 0.00563269
31 *718:21 *724:37 0.0222621
32 *720:7 *724:7 0
33 *720:13 *724:21 0.000735992
34 *720:13 *724:29 7.28145e-05
35 *721:9 *724:9 0.00192559
36 *723:7 *724:7 0.00111044
37 *723:23 *724:37 0.025015
*RES
1 *897:analog_ctrl[42] *724:7 23.6557 
2 *724:7 *724:9 171.035 
3 *724:9 *724:19 31.5917 
4 *724:19 *724:21 161.178 
5 *724:21 *724:29 36.09 
6 *724:29 *724:35 23.3211 
7 *724:35 *724:37 55.6976 
8 *724:37 *892:dft_inc[0] 12.0238 
*END

*D_NET *725 0.276884
*CONN
*I *892:dft_inc[1] I *D CF_ADC_SAR12
*I *897:analog_ctrl[43] O *D soc_sys
*CAP
1 *892:dft_inc[1] 0.000366148
2 *897:analog_ctrl[43] 0.00405168
3 *725:13 0.010577
4 *725:11 0.0102109
5 *725:9 0.0266175
6 *725:7 0.0306691
7 *892:dft_inc[1] *892:dft_inc[2] 0.000109734
8 *892:dft_inc[1] *892:dft_outc[2] 0.000197529
9 *725:7 *726:7 0.00300003
10 *725:9 *756:9 0.00127679
11 *725:9 *778:9 0.00209502
12 *725:9 *780:9 0.0668249
13 *725:9 *800:9 0.00034829
14 *725:9 *807:9 0.00108704
15 *725:9 *814:9 0.000470255
16 *725:9 *837:13 0.002891
17 *725:9 *886:9 0.000947916
18 *725:13 *730:13 0.0428358
19 *725:13 *775:29 4.1352e-05
20 *892:trimunit *892:dft_inc[1] 0
21 *892:dft_inc[0] *892:dft_inc[1] 0.000295589
22 *658:19 *725:13 0.00926098
23 *690:9 *725:9 0.00372095
24 *695:21 *725:13 0.00173589
25 *696:21 *725:13 0.0240192
26 *707:13 *725:13 0.000637332
27 *713:13 *725:13 0
28 *721:9 *725:9 0.0287944
29 *724:7 *725:7 0.00380186
*RES
1 *897:analog_ctrl[43] *725:7 22.7971 
2 *725:7 *725:9 172.305 
3 *725:9 *725:11 8 
4 *725:11 *725:13 84.7635 
5 *725:13 *892:dft_inc[1] 17.658 
*END

*D_NET *726 0.238675
*CONN
*I *892:dft_inc[2] I *D CF_ADC_SAR12
*I *897:analog_ctrl[44] O *D soc_sys
*CAP
1 *892:dft_inc[2] 5.51276e-05
2 *897:analog_ctrl[44] 0.00405568
3 *726:13 0.0109087
4 *726:11 0.0108536
5 *726:9 0.0412941
6 *726:7 0.0453498
7 *726:7 *727:7 0.000438679
8 *726:7 *728:7 0.000728734
9 *726:7 *729:7 0
10 *726:7 *730:7 0
11 *726:9 *738:9 0
12 *726:9 *755:9 0
13 *726:9 *760:9 0
14 *726:9 *815:9 0.000705997
15 *726:9 *816:9 0.00105694
16 *726:9 *821:9 0.000777287
17 *726:9 *822:13 0.00123025
18 *726:9 *825:21 0.000137256
19 *726:9 *870:13 0.00096
20 *726:9 *885:9 0.000137256
21 *726:13 *892:pd 0.000653372
22 *726:13 *892:dft_outc[1] 0.00592262
23 *892:sample_width[1] *726:13 0.00452251
24 *892:test_sea *726:13 0.000996657
25 *892:trimunit *892:dft_inc[2] 0
26 *892:dft_inc[1] *892:dft_inc[2] 0.000109734
27 *40:13 *726:9 0.0359742
28 *647:21 *726:13 4.51815e-05
29 *648:17 *726:13 0.000805542
30 *656:13 *726:13 0.00147232
31 *687:21 *726:13 1.86684e-05
32 *691:21 *726:13 0.00884925
33 *697:19 *726:13 0.000131272
34 *697:21 *726:13 0.000504223
35 *697:29 *726:13 0.0287233
36 *708:25 *726:13 0.0110879
37 *710:9 *726:9 0
38 *713:13 *726:13 0.00251795
39 *714:9 *726:9 0.0037467
40 *720:13 *726:13 0.00161357
41 *720:27 *726:13 0.00167196
42 *720:29 *726:13 0.00672806
43 *724:21 *726:13 0.000890458
44 *725:7 *726:7 0.00300003
*RES
1 *897:analog_ctrl[44] *726:7 20.908 
2 *726:7 *726:9 170.654 
3 *726:9 *726:11 8 
4 *726:11 *726:13 82.9351 
5 *726:13 *892:dft_inc[2] 9.48107 
*END

*D_NET *727 0.207227
*CONN
*I *892:dft_inc[3] I *D CF_ADC_SAR12
*I *897:analog_ctrl[45] O *D soc_sys
*CAP
1 *892:dft_inc[3] 0.000164758
2 *897:analog_ctrl[45] 0.000635272
3 *727:17 0.0308816
4 *727:15 0.0307168
5 *727:13 0.0126638
6 *727:11 0.0126638
7 *727:9 0.00624694
8 *727:7 0.00688222
9 *892:dft_inc[3] *892:pd_ana 0
10 *727:7 *728:7 0.000435596
11 *727:9 *748:9 0.0260986
12 *727:9 *819:9 0.000998322
13 *727:13 *743:13 0.000370693
14 *727:17 *759:33 0
15 *72:13 *727:13 0
16 *73:21 *727:13 3.94872e-05
17 *103:39 *727:9 0.00119558
18 *698:17 *727:13 0.0379129
19 *706:15 *727:13 0.0111591
20 *716:9 *727:9 0.0273441
21 *717:9 *727:9 0.000378615
22 *726:7 *727:7 0.000438679
*RES
1 *897:analog_ctrl[45] *727:7 9.96 
2 *727:7 *727:9 367.078 
3 *727:9 *727:11 8 
4 *727:11 *727:13 72.0552 
5 *727:13 *727:15 8 
6 *727:15 *727:17 100.841 
7 *727:17 *892:dft_inc[3] 18.7141 
*END

*D_NET *728 0.265973
*CONN
*I *892:dft_outc[0] I *D CF_ADC_SAR12
*I *897:analog_ctrl[46] O *D soc_sys
*CAP
1 *892:dft_outc[0] 0.00182258
2 *897:analog_ctrl[46] 0.0027559
3 *728:51 0.00464208
4 *728:37 0.00483966
5 *728:29 0.00556483
6 *728:9 0.0235765
7 *728:7 0.0227877
8 *892:dft_outc[0] *892:pd 1.7451e-05
9 *892:dft_outc[0] *892:dft_outc[2] 0.000162256
10 *892:dft_outc[0] *892:dft_outc[1] 5.85196e-05
11 *728:7 *729:7 0.00245266
12 *728:9 *737:9 0.00103586
13 *728:9 *757:9 0.000127201
14 *728:9 *888:9 0.000901976
15 *728:29 *775:19 0.000173416
16 *728:51 *775:21 0.00269659
17 *892:hiz *728:29 0.00396854
18 *892:hiz *728:37 0.00424489
19 *892:icont_lv[1] *892:dft_outc[0] 0.00377772
20 *42:13 *728:9 0
21 *649:9 *728:29 0.000120171
22 *649:9 *728:37 0.000701198
23 *651:9 *728:29 0.000344359
24 *651:9 *728:37 0.000801243
25 *652:29 *728:29 0.00289553
26 *657:19 *728:29 0.0031326
27 *672:27 *728:37 7.43012e-05
28 *672:35 *728:51 8.48453e-05
29 *692:9 *728:9 0.0349579
30 *694:21 *892:dft_outc[0] 0.00388806
31 *694:21 *728:29 2.25541e-05
32 *694:21 *728:51 0.014219
33 *695:13 *728:29 0.000753233
34 *695:21 *728:51 0.014219
35 *696:13 *728:29 0.000869614
36 *707:13 *728:29 0.000111907
37 *713:13 *728:29 0.00165492
38 *715:9 *728:9 0.0741035
39 *719:19 *728:29 0.00248366
40 *719:21 *892:dft_outc[0] 0.004515
41 *719:21 *728:37 0.00944017
42 *723:23 *892:dft_outc[0] 0.00463687
43 *723:23 *728:37 0.00514228
44 *724:37 *728:37 3.07752e-05
45 *726:7 *728:7 0.000728734
46 *727:7 *728:7 0.000435596
*RES
1 *897:analog_ctrl[46] *728:7 17.5163 
2 *728:7 *728:9 948.114 
3 *728:9 *728:29 44.7318 
4 *728:29 *728:37 36.26 
5 *728:37 *728:51 48.9394 
6 *728:51 *892:dft_outc[0] 30.3169 
*END

*D_NET *729 0.262142
*CONN
*I *892:dft_outc[1] I *D CF_ADC_SAR12
*I *897:analog_ctrl[47] O *D soc_sys
*CAP
1 *892:dft_outc[1] 0.0322862
2 *897:analog_ctrl[47] 0.00291807
3 *729:9 0.0821643
4 *729:7 0.0527961
5 *892:dft_outc[1] *892:pd 0.000115849
6 *892:dft_outc[1] *892:dft_outc[2] 5.85196e-05
7 *892:dft_outc[1] *731:17 0.00174608
8 *892:dft_outc[1] *759:33 0
9 *892:dft_outc[1] *776:35 0.0154402
10 *729:7 *730:7 0.0028224
11 *729:9 *746:9 0.00358481
12 *729:9 *755:9 0.021488
13 *729:9 *861:9 0.0125456
14 *729:9 *890:9 0.000927717
15 *892:sample_width[1] *892:dft_outc[1] 0.000753259
16 *892:test_sea *892:dft_outc[1] 0.00280946
17 *892:dft_outc[0] *892:dft_outc[1] 5.85196e-05
18 *646:8 *892:dft_outc[1] 0.000807908
19 *647:21 *892:dft_outc[1] 0.000855029
20 *648:17 *892:dft_outc[1] 0.00115121
21 *656:23 *892:dft_outc[1] 0.000594499
22 *674:9 *729:9 0.00291409
23 *678:9 *729:9 0.00304538
24 *687:21 *892:dft_outc[1] 0.00165173
25 *691:21 *892:dft_outc[1] 0.000380902
26 *693:19 *892:dft_outc[1] 0.00109761
27 *697:29 *892:dft_outc[1] 1.44789e-05
28 *708:25 *892:dft_outc[1] 0.00137838
29 *720:29 *892:dft_outc[1] 0.00735995
30 *726:7 *729:7 0
31 *726:13 *892:dft_outc[1] 0.00592262
32 *728:7 *729:7 0.00245266
*RES
1 *897:analog_ctrl[47] *729:7 19.0189 
2 *729:7 *729:9 169.385 
3 *729:9 *892:dft_outc[1] 29.2151 
*END

*D_NET *730 0.279083
*CONN
*I *892:dft_outc[2] I *D CF_ADC_SAR12
*I *897:analog_ctrl[48] O *D soc_sys
*CAP
1 *892:dft_outc[2] 0.000378805
2 *897:analog_ctrl[48] 0.00344364
3 *730:13 0.011986
4 *730:11 0.0116072
5 *730:9 0.0126716
6 *730:7 0.0161152
7 *730:7 *731:7 0.00172225
8 *730:7 *735:7 0
9 *730:9 *755:9 0.00977163
10 *730:9 *783:17 0.0645004
11 *730:9 *844:17 0.00331701
12 *730:9 *853:13 0
13 *730:13 *775:29 0.00557132
14 *730:13 *782:17 0
15 *892:dft_inc[1] *892:dft_outc[2] 0.000197529
16 *892:dft_inc[0] *892:dft_outc[2] 0.000266136
17 *892:dft_outc[1] *892:dft_outc[2] 5.85196e-05
18 *892:dft_outc[0] *892:dft_outc[2] 0.000162256
19 *710:9 *730:9 0.000373284
20 *715:15 *730:13 0.0176023
21 *720:9 *730:9 0.0736801
22 *725:13 *730:13 0.0428358
23 *726:7 *730:7 0
24 *729:7 *730:7 0.0028224
*RES
1 *897:analog_ctrl[48] *730:7 19.6629 
2 *730:7 *730:9 949.522 
3 *730:9 *730:11 8 
4 *730:11 *730:13 81.4576 
5 *730:13 *892:dft_outc[2] 18.3623 
*END

*D_NET *731 0.210313
*CONN
*I *892:sel_csel_dft[0] I *D CF_ADC_SAR12
*I *897:analog_ctrl[49] O *D soc_sys
*CAP
1 *892:sel_csel_dft[0] 0.000145513
2 *897:analog_ctrl[49] 0.00185752
3 *731:17 0.00634334
4 *731:9 0.0186134
5 *731:7 0.0142731
6 *892:sel_csel_dft[0] *892:sel_csel_dft[1] 0.000103282
7 *731:7 *733:7 0.000775174
8 *731:7 *734:7 1.38508e-05
9 *731:7 *735:7 0
10 *731:17 *733:17 2.13985e-05
11 *731:17 *776:35 0.000206947
12 *892:test_scanen *892:sel_csel_dft[0] 0
13 *892:dft_outc[1] *731:17 0.00174608
14 *646:8 *731:17 0.0121166
15 *648:21 *731:9 0.0683687
16 *653:8 *731:17 0
17 *693:9 *731:9 0.0728035
18 *701:9 *731:9 0.00148409
19 *703:21 *731:17 6.99323e-06
20 *719:9 *731:9 0.0097111
21 *730:7 *731:7 0.00172225
*RES
1 *897:analog_ctrl[49] *731:7 14.5968 
2 *731:7 *731:9 932.619 
3 *731:9 *731:17 42.8707 
4 *731:17 *892:sel_csel_dft[0] 18.8125 
*END

*D_NET *732 0.346044
*CONN
*I *895:e_n_boost I *D CF_BUF_HIZ
*I *897:analog_ctrl[4] O *D soc_sys
*CAP
1 *895:e_n_boost 0.000304601
2 *897:analog_ctrl[4] 0.00489913
3 *732:29 0.0218075
4 *732:27 0.021546
5 *732:21 0.00514856
6 *732:19 0.00523585
7 *732:13 0.0178531
8 *732:11 0.0177227
9 *732:9 0.0259277
10 *732:7 0.0308268
11 *895:e_n_boost *895:clk1_boostr 0.000102295
12 *895:e_n_boost *895:e_na_boost 7.41124e-05
13 *732:7 *743:7 0.00041918
14 *732:9 *742:9 0.00554455
15 *732:9 *793:9 0.00321406
16 *732:9 *796:9 0.000761119
17 *732:9 *798:9 0.000761119
18 *732:9 *804:9 0.000761119
19 *732:9 *806:13 0.0152245
20 *732:9 *806:17 0.000649775
21 *732:9 *811:9 0.000756325
22 *732:9 *832:21 0.000761119
23 *732:9 *836:17 0.000863405
24 *732:9 *847:13 0.00301833
25 *732:9 *855:9 0.000870581
26 *732:29 *895:clk1_boostr 1.82152e-05
27 *895:vinp_n *895:e_n_boost 2.85139e-05
28 *895:vinp_na *895:e_n_boost 1.15992e-05
29 *895:vinn_na *732:29 0.00485707
30 *24:25 *732:29 0.000553488
31 *710:13 *732:13 0.0429321
32 *710:19 *732:19 0.000213945
33 *710:21 *732:21 0.0169794
34 *710:29 *732:29 0.006615
35 *721:7 *732:7 0.00363746
36 *721:9 *732:9 0.000457789
37 *721:23 *732:13 0.0146709
38 *721:23 *732:29 0.0169273
39 *724:9 *732:9 0.053088
*RES
1 *897:analog_ctrl[4] *732:7 23.8275 
2 *732:7 *732:9 136.255 
3 *732:9 *732:11 8 
4 *732:11 *732:13 83.7331 
5 *732:13 *732:19 26.4904 
6 *732:19 *732:21 181.664 
7 *732:21 *732:27 23.6732 
8 *732:27 *732:29 87.8117 
9 *732:29 *895:e_n_boost 29.9859 
*END

*D_NET *733 0.17391
*CONN
*I *892:sel_csel_dft[1] I *D CF_ADC_SAR12
*I *897:analog_ctrl[50] O *D soc_sys
*CAP
1 *892:sel_csel_dft[1] 8.92937e-05
2 *897:analog_ctrl[50] 0.000727929
3 *733:17 0.0178041
4 *733:15 0.0223873
5 *733:9 0.0116037
6 *733:7 0.00765902
7 *892:sel_csel_dft[1] *892:sel_csel_dft[2] 0.000103282
8 *733:7 *734:7 0.000775174
9 *733:9 *734:9 0.028617
10 *733:9 *745:9 0.000170749
11 *733:9 *761:13 0.000110915
12 *733:9 *763:9 0
13 *733:9 *764:9 7.48354e-05
14 *733:9 *767:9 0.000741119
15 *733:9 *771:9 0.00169996
16 *733:9 *782:9 0.0241909
17 *733:9 *826:21 3.38806e-05
18 *733:15 *734:15 0
19 *733:17 *734:17 0.0408571
20 *733:17 *735:17 2.68358e-05
21 *892:sel_csel_dft[0] *892:sel_csel_dft[1] 0.000103282
22 *67:249 *733:9 0
23 *111:27 *733:15 0.000326594
24 *700:15 *733:15 0
25 *703:21 *733:17 0.00449791
26 *717:15 *733:15 0.0105128
27 *731:7 *733:7 0.000775174
28 *731:17 *733:17 2.13985e-05
*RES
1 *897:analog_ctrl[50] *733:7 10.9904 
2 *733:7 *733:9 378.346 
3 *733:9 *733:15 36.8787 
4 *733:15 *733:17 97.5408 
5 *733:17 *892:sel_csel_dft[1] 18.2843 
*END

*D_NET *734 0.196605
*CONN
*I *892:sel_csel_dft[2] I *D CF_ADC_SAR12
*I *897:analog_ctrl[51] O *D soc_sys
*CAP
1 *892:sel_csel_dft[2] 0.00014744
2 *897:analog_ctrl[51] 0.000744635
3 *734:17 0.0106596
4 *734:15 0.0155403
5 *734:9 0.0111328
6 *734:7 0.00684936
7 *892:sel_csel_dft[2] *892:sel_csel_dft[3] 6.69852e-05
8 *734:7 *735:7 0.000796951
9 *734:9 *745:9 0.0275505
10 *734:9 *761:13 0.000127194
11 *734:9 *771:9 0.00139163
12 *734:9 *826:21 0.000524036
13 *734:15 *748:13 0
14 *734:15 *761:21 0
15 *734:17 *735:17 0.0411794
16 *892:sel_csel_dft[1] *892:sel_csel_dft[2] 0.000103282
17 *700:15 *734:15 0.0095276
18 *703:21 *734:17 0
19 *731:7 *734:7 1.38508e-05
20 *733:7 *734:7 0.000775174
21 *733:9 *734:9 0.028617
22 *733:15 *734:15 0
23 *733:17 *734:17 0.0408571
*RES
1 *897:analog_ctrl[51] *734:7 11.0763 
2 *734:7 *734:9 372.712 
3 *734:9 *734:15 36.7928 
4 *734:15 *734:17 98.1755 
5 *734:17 *892:sel_csel_dft[2] 19.5168 
*END

*D_NET *735 0.186745
*CONN
*I *892:sel_csel_dft[3] I *D CF_ADC_SAR12
*I *897:analog_ctrl[52] O *D soc_sys
*CAP
1 *892:sel_csel_dft[3] 0.000144415
2 *897:analog_ctrl[52] 0.0024541
3 *735:17 0.0223531
4 *735:15 0.0273304
5 *735:9 0.0102244
6 *735:7 0.00755667
7 *735:7 *736:7 0.00149159
8 *735:7 *737:7 0.000247285
9 *892:sel_csel_dft[2] *892:sel_csel_dft[3] 6.69852e-05
10 *892:reset_n *892:sel_csel_dft[3] 0
11 *897:wbs_dat_i[30] *735:15 0.0006552
12 *629:8 *735:15 0.000328243
13 *629:10 *735:17 0.00011472
14 *632:16 *735:15 0.000992612
15 *651:13 *735:9 5.11534e-05
16 *676:23 *735:15 0.00926781
17 *691:9 *735:9 0.0264771
18 *697:9 *735:9 0.00228969
19 *703:21 *735:17 0
20 *709:9 *735:9 0.0263666
21 *709:15 *735:15 0.00546953
22 *718:13 *735:15 0.000860538
23 *730:7 *735:7 0
24 *731:7 *735:7 0
25 *733:17 *735:17 2.68358e-05
26 *734:7 *735:7 0.000796951
27 *734:17 *735:17 0.0411794
*RES
1 *897:analog_ctrl[52] *735:7 15.9707 
2 *735:7 *735:9 342.428 
3 *735:9 *735:15 41.5155 
4 *735:15 *735:17 103.507 
5 *735:17 *892:sel_csel_dft[3] 18.8125 
*END

*D_NET *736 0.119818
*CONN
*I *893:vref[0] I *D CF_ADC_SAR12_sar_refs
*I *897:analog_ctrl[53] O *D soc_sys
*CAP
1 *893:vref[0] 4.70689e-05
2 *897:analog_ctrl[53] 0.00134187
3 *736:13 0.0217594
4 *736:11 0.0217124
5 *736:9 0.0202157
6 *736:7 0.0215576
7 *893:vref[0] *893:vref[1] 2.77545e-05
8 *736:7 *737:7 0.00148477
9 *736:9 *747:9 0.00210467
10 *736:9 *783:15 0.000406075
11 *736:9 *788:13 0.000383604
12 *736:9 *790:9 0
13 *736:9 *859:9 0.000682247
14 *736:9 *881:9 0.000594928
15 *650:25 *736:9 0.00787545
16 *652:33 *736:9 0.00218985
17 *656:25 *736:9 0.000109643
18 *672:9 *736:9 0.0125542
19 *681:9 *736:9 0.00174455
20 *684:9 *736:9 0.00128264
21 *711:9 *736:9 0.000251792
22 *735:7 *736:7 0.00149159
*RES
1 *897:analog_ctrl[53] *736:7 13.6952 
2 *736:7 *736:9 71.2656 
3 *736:9 *736:11 8 
4 *736:11 *736:13 72.0375 
5 *736:13 *893:vref[0] 0.2184 
*END

*D_NET *737 0.114011
*CONN
*I *893:vref[1] I *D CF_ADC_SAR12_sar_refs
*I *897:analog_ctrl[54] O *D soc_sys
*CAP
1 *893:vref[1] 0.00380576
2 *897:analog_ctrl[54] 0.00272981
3 *737:13 0.0244875
4 *737:11 0.0206817
5 *737:9 0.0172069
6 *737:7 0.0199367
7 *893:vref[1] *893:vref[3] 0
8 *893:vref[1] *893:vref[2] 0.00152694
9 *737:7 *738:7 0.00245123
10 *737:9 *757:9 0.00476107
11 *737:9 *827:21 0.000675619
12 *737:9 *866:9 0.000878847
13 *737:9 *888:9 0.0104861
14 *893:vref[0] *893:vref[1] 2.77545e-05
15 *67:215 *737:13 0.000407368
16 *692:9 *737:9 0.00117955
17 *728:9 *737:9 0.00103586
18 *735:7 *737:7 0.000247285
19 *736:7 *737:7 0.00148477
*RES
1 *897:analog_ctrl[54] *737:7 17.6451 
2 *737:7 *737:9 57.176 
3 *737:9 *737:11 8 
4 *737:11 *737:13 68.5776 
5 *737:13 *893:vref[1] 30.1876 
*END

*D_NET *738 0.119848
*CONN
*I *893:vref[2] I *D CF_ADC_SAR12_sar_refs
*I *897:analog_ctrl[55] O *D soc_sys
*CAP
1 *893:vref[2] 0.00199854
2 *897:analog_ctrl[55] 0.0039432
3 *738:13 0.0220965
4 *738:11 0.0200979
5 *738:9 0.015971
6 *738:7 0.0199142
7 *893:vref[2] *893:vref[3] 0.00155279
8 *738:7 *739:7 0.00113151
9 *738:7 *740:7 0.000303285
10 *738:7 *742:7 0
11 *738:9 *760:9 0.0231163
12 *738:9 *825:21 0.00072238
13 *738:9 *860:9 0.000805699
14 *738:9 *885:9 0.000599836
15 *893:vref[1] *893:vref[2] 0.00152694
16 *67:209 *738:13 0
17 *76:57 *738:13 0
18 *679:9 *738:9 0.00122017
19 *680:9 *738:9 0.00110163
20 *702:9 *738:9 0.00021176
21 *710:9 *738:9 0.00108328
22 *726:9 *738:9 0
23 *737:7 *738:7 0.00245123
*RES
1 *897:analog_ctrl[55] *738:7 20.0493 
2 *738:7 *738:9 60.7301 
3 *738:9 *738:11 8 
4 *738:11 *738:13 66.6885 
5 *738:13 *893:vref[2] 26.4552 
*END

*D_NET *739 0.120766
*CONN
*I *893:vref[3] I *D CF_ADC_SAR12_sar_refs
*I *897:analog_ctrl[56] O *D soc_sys
*CAP
1 *893:vref[3] 0.00425836
2 *897:analog_ctrl[56] 0.00107664
3 *739:13 0.028102
4 *739:11 0.0238436
5 *739:9 0.0152197
6 *739:7 0.0162963
7 *893:vref[3] *893:vref[4] 0.00253191
8 *739:7 *740:7 0.00101057
9 *739:9 *759:9 0.0101194
10 *739:9 *761:17 0.00049575
11 *739:9 *762:17 0
12 *739:9 *770:17 0.000733149
13 *739:9 *790:9 0.0108203
14 *739:9 *791:9 0.000635989
15 *739:9 *797:9 0.000381171
16 *739:9 *808:9 0.00055459
17 *893:vref[2] *893:vref[3] 0.00155279
18 *893:vref[1] *893:vref[3] 0
19 *665:9 *739:9 0.000609194
20 *671:9 *739:9 0.000740122
21 *723:9 *739:9 0.000652676
22 *738:7 *739:7 0.00113151
*RES
1 *897:analog_ctrl[56] *739:7 12.3213 
2 *739:7 *739:9 51.464 
3 *739:9 *739:11 8 
4 *739:11 *739:13 74.9317 
5 *739:13 *893:vref[3] 35.5095 
*END

*D_NET *740 0.114494
*CONN
*I *893:vref[4] I *D CF_ADC_SAR12_sar_refs
*I *897:analog_ctrl[57] O *D soc_sys
*CAP
1 *893:vref[4] 0.0041649
2 *897:analog_ctrl[57] 0.00233195
3 *740:13 0.0265834
4 *740:11 0.0224185
5 *740:9 0.0147508
6 *740:7 0.0170827
7 *740:7 *742:7 0.000651753
8 *740:9 *769:9 0.000834183
9 *740:9 *824:21 0.0112008
10 *740:9 *852:13 0.000563111
11 *740:9 *865:9 0.00065545
12 *740:9 *872:9 0.000751652
13 *740:9 *891:9 0.000511465
14 *893:vref[3] *893:vref[4] 0.00253191
15 *658:21 *740:9 0.0023546
16 *719:9 *740:9 0.00579326
17 *738:7 *740:7 0.000303285
18 *739:7 *740:7 0.00101057
*RES
1 *897:analog_ctrl[57] *740:7 15.0691 
2 *740:7 *740:9 53.7488 
3 *740:9 *740:11 8 
4 *740:11 *740:13 72.6992 
5 *740:13 *893:vref[4] 32.9885 
*END

*D_NET *741 0.13823
*CONN
*I *893:PWR_CTRL_VREF[0] I *D CF_ADC_SAR12_sar_refs
*I *897:analog_ctrl[58] O *D soc_sys
*CAP
1 *893:PWR_CTRL_VREF[0] 0.000163384
2 *897:analog_ctrl[58] 7.24005e-05
3 *741:29 0.00547857
4 *741:25 0.0138884
5 *741:23 0.0104116
6 *741:19 0.00220324
7 *741:9 0.00119967
8 *741:7 0.000907225
9 *893:PWR_CTRL_VREF[0] *893:PWR_CTRL_VREF[1] 0.000128081
10 *893:PWR_CTRL_VREF[0] *893:EN_RESVDA 2.33476e-05
11 *741:9 *773:40 0.00013184
12 *741:9 *776:13 0.000405585
13 *741:23 *780:7 0.00366608
14 *741:23 *781:7 0.00366317
15 *741:25 *781:17 0.00430185
16 *741:25 *848:23 0.00547289
17 *741:25 *868:9 0.000889573
18 *741:29 *893:PWR_CTRL_VREF[1] 0.0152927
19 *741:29 *747:13 0.000791269
20 *67:247 *741:19 0.000507767
21 *118:57 *741:9 0.000662417
22 *675:9 *741:25 0.0349091
23 *675:15 *741:29 0.00123221
24 *676:9 *741:19 2.21614e-05
25 *689:17 *741:29 0.0165937
26 *691:9 *741:25 0.0105159
27 *694:15 *741:29 0
28 *699:21 *741:9 0.00315312
29 *700:11 *741:9 0.00134027
30 *712:9 *741:19 2.05503e-05
31 *718:9 *741:25 0.000181928
*RES
1 *897:analog_ctrl[58] *741:7 8.1568 
2 *741:7 *741:9 49.9732 
3 *741:9 *741:19 44.6596 
4 *741:19 *741:23 15.4405 
5 *741:23 *741:25 471.312 
6 *741:25 *741:29 44.8928 
7 *741:29 *893:PWR_CTRL_VREF[0] 41.2418 
*END

*D_NET *742 0.116015
*CONN
*I *893:PWR_CTRL_VREF[1] I *D CF_ADC_SAR12_sar_refs
*I *897:analog_ctrl[59] O *D soc_sys
*CAP
1 *893:PWR_CTRL_VREF[1] 0.00462245
2 *897:analog_ctrl[59] 0.00594105
3 *742:9 0.0222185
4 *742:7 0.0235371
5 *893:PWR_CTRL_VREF[1] *893:EN_RESVDA 1.67409e-05
6 *893:PWR_CTRL_VREF[1] *747:13 0.00439682
7 *742:7 *744:7 0.00311775
8 *742:7 *806:13 0
9 *742:9 *793:9 0.0123078
10 *742:9 *804:9 6.0666e-05
11 *742:9 *806:13 0.00265977
12 *742:9 *828:17 0
13 *742:9 *831:13 0
14 *742:9 *836:17 0.0153769
15 *742:9 *875:11 0
16 *893:PWR_CTRL_VREF[0] *893:PWR_CTRL_VREF[1] 0.000128081
17 *893:PD_BUF_VREF *893:PWR_CTRL_VREF[1] 0.000117877
18 *675:15 *893:PWR_CTRL_VREF[1] 2.47315e-05
19 *732:9 *742:9 0.00554455
20 *738:7 *742:7 0
21 *740:7 *742:7 0.000651753
22 *741:29 *893:PWR_CTRL_VREF[1] 0.0152927
*RES
1 *897:analog_ctrl[59] *742:7 24.0421 
2 *742:7 *742:9 519.204 
3 *742:9 *893:PWR_CTRL_VREF[1] 48.0397 
*END

*D_NET *743 0.338796
*CONN
*I *895:e_na_boost I *D CF_BUF_HIZ
*I *897:analog_ctrl[5] O *D soc_sys
*CAP
1 *895:e_na_boost 6.26521e-05
2 *897:analog_ctrl[5] 0.000407325
3 *743:17 0.00867202
4 *743:15 0.00860937
5 *743:13 0.0293236
6 *743:11 0.0293236
7 *743:9 0.00773023
8 *743:7 0.00813756
9 *895:e_na_boost *895:clk1_boostr 6.08516e-05
10 *743:7 *754:7 0.000398224
11 *743:9 *754:9 0.0322284
12 *743:9 *819:9 0
13 *743:17 *754:17 0.0235503
14 *895:e_n_boost *895:e_na_boost 7.41124e-05
15 *24:25 *895:e_na_boost 4.62346e-05
16 *72:13 *743:13 0
17 *73:21 *743:13 0.102617
18 *75:30 *743:17 0.00961995
19 *103:39 *743:9 0.00193121
20 *698:17 *743:13 0.0461765
21 *716:9 *743:9 5.26984e-05
22 *717:9 *743:9 0.0289844
23 *727:13 *743:13 0.000370693
24 *732:7 *743:7 0.00041918
*RES
1 *897:analog_ctrl[5] *743:7 9.7024 
2 *743:7 *743:9 422.012 
3 *743:9 *743:11 8 
4 *743:11 *743:13 190.122 
5 *743:13 *743:15 8 
6 *743:15 *743:17 60.984 
7 *743:17 *895:e_na_boost 31.9445 
*END

*D_NET *744 0.109948
*CONN
*I *893:muxsarref[0] I *D CF_ADC_SAR12_sar_refs
*I *897:analog_ctrl[60] O *D soc_sys
*CAP
1 *893:muxsarref[0] 8.89057e-05
2 *897:analog_ctrl[60] 0.00452824
3 *744:15 0.00684669
4 *744:9 0.0141103
5 *744:7 0.0118807
6 *893:muxsarref[0] *893:muxsarref[2] 0.000414154
7 *893:muxsarref[0] *893:muxsarref[1] 0.00031475
8 *744:7 *745:7 0.000736158
9 *744:7 *746:7 0.000705723
10 *744:9 *818:9 0.00195418
11 *744:9 *871:9 0.0144773
12 *744:15 *745:13 0.0166301
13 *677:9 *744:9 0.0258847
14 *682:9 *744:9 0.00825807
15 *742:7 *744:7 0.00311775
*RES
1 *897:analog_ctrl[60] *744:7 21.6379 
2 *744:7 *744:9 406.518 
3 *744:9 *744:15 47.8267 
4 *744:15 *893:muxsarref[0] 5.39607 
*END

*D_NET *745 0.108338
*CONN
*I *893:muxsarref[1] I *D CF_ADC_SAR12_sar_refs
*I *897:analog_ctrl[61] O *D soc_sys
*CAP
1 *893:muxsarref[1] 0.00016649
2 *897:analog_ctrl[61] 0.000812514
3 *745:13 0.0110458
4 *745:11 0.0108793
5 *745:9 0.00803674
6 *745:7 0.00884925
7 *893:muxsarref[1] *893:muxsarref[2] 2.31765e-05
8 *745:7 *746:7 0.000818719
9 *745:9 *761:13 0.000277518
10 *745:9 *771:9 0.00108297
11 *745:9 *775:9 0.000341849
12 *745:9 *779:9 0.00764904
13 *745:9 *782:9 0.00111314
14 *745:9 *826:21 0.0118394
15 *745:13 *746:13 0
16 *893:muxsarref[0] *893:muxsarref[1] 0.00031475
17 *670:9 *745:9 0
18 *733:9 *745:9 0.000170749
19 *734:9 *745:9 0.0275505
20 *744:7 *745:7 0.000736158
21 *744:15 *745:13 0.0166301
*RES
1 *897:analog_ctrl[61] *745:7 11.1621 
2 *745:7 *745:9 404.405 
3 *745:9 *745:11 8 
4 *745:11 *745:13 42.3024 
5 *745:13 *893:muxsarref[1] 13.5411 
*END

*D_NET *746 0.105247
*CONN
*I *893:muxsarref[2] I *D CF_ADC_SAR12_sar_refs
*I *897:analog_ctrl[62] O *D soc_sys
*CAP
1 *893:muxsarref[2] 0.00042327
2 *897:analog_ctrl[62] 0.00379879
3 *746:13 0.0113734
4 *746:9 0.0178221
5 *746:7 0.0106707
6 *746:7 *747:7 0.00148057
7 *746:9 *781:9 0
8 *746:9 *890:9 0.00264302
9 *893:muxsarref[1] *893:muxsarref[2] 2.31765e-05
10 *893:muxsarref[0] *893:muxsarref[2] 0.000414154
11 *674:9 *746:9 0.0259052
12 *678:9 *746:9 0.025583
13 *707:9 *746:9 0
14 *729:9 *746:9 0.00358481
15 *744:7 *746:7 0.000705723
16 *745:7 *746:7 0.000818719
17 *745:13 *746:13 0
*RES
1 *897:analog_ctrl[62] *746:7 18.976 
2 *746:7 *746:9 398.771 
3 *746:9 *746:13 42.4027 
4 *746:13 *893:muxsarref[2] 19.3307 
*END

*D_NET *747 0.107493
*CONN
*I *893:EN_RESVDA I *D CF_ADC_SAR12_sar_refs
*I *897:analog_ctrl[63] O *D soc_sys
*CAP
1 *893:EN_RESVDA 0.000290395
2 *897:analog_ctrl[63] 0.00173262
3 *747:13 0.011172
4 *747:9 0.0255004
5 *747:7 0.0163514
6 *747:7 *748:7 0.000498802
7 *747:9 *859:9 0.00718466
8 *747:9 *869:9 0.00284786
9 *747:9 *881:9 0.000407505
10 *893:PWR_CTRL_VREF[1] *893:EN_RESVDA 1.67409e-05
11 *893:PWR_CTRL_VREF[1] *747:13 0.00439682
12 *893:PWR_CTRL_VREF[0] *893:EN_RESVDA 2.33476e-05
13 *893:pd_vcmbuf *893:EN_RESVDA 4.47213e-05
14 *893:PD_BUF_VREF *893:EN_RESVDA 0.000211146
15 *649:13 *747:9 0
16 *650:17 *747:9 0
17 *672:9 *747:9 0.000754659
18 *681:9 *747:9 0.0316637
19 *689:17 *893:EN_RESVDA 1.95819e-05
20 *694:15 *747:13 0
21 *711:9 *747:9 0
22 *736:9 *747:9 0.00210467
23 *741:29 *747:13 0.000791269
24 *746:7 *747:7 0.00148057
*RES
1 *897:analog_ctrl[63] *747:7 13.7381 
2 *747:7 *747:9 511.456 
3 *747:9 *747:13 47.3829 
4 *747:13 *893:EN_RESVDA 15.1464 
*END

*D_NET *748 0.31495
*CONN
*I *894:trimTC[0] I *D CF_BGR
*I *897:analog_ctrl[64] O *D soc_sys
*CAP
1 *894:trimTC[0] 0.000201114
2 *897:analog_ctrl[64] 0.000655463
3 *748:17 0.0319918
4 *748:15 0.0317907
5 *748:13 0.0214639
6 *748:11 0.0214639
7 *748:9 0.00892974
8 *748:7 0.00958521
9 *894:trimTC[0] *894:trimTC[2] 0
10 *894:trimTC[0] *894:trimTC[1] 0.000200966
11 *748:7 *749:7 0.000374185
12 *748:7 *753:7 0
13 *748:9 *897:sram_dat_i[21] 5.43023e-05
14 *748:9 *897:sram_dat_i[24] 3.04346e-05
15 *748:9 *763:9 0
16 *748:9 *805:11 5.40143e-05
17 *748:9 *819:9 0.00976806
18 *748:13 *761:21 0.0717654
19 *748:17 *749:17 0.000389816
20 *748:17 *750:17 0
21 *748:17 *751:17 0
22 *24:13 *894:trimTC[0] 4.29408e-05
23 *44:21 *748:17 0.0657136
24 *67:229 *748:9 0.00117153
25 *103:39 *748:9 0.00108593
26 *653:14 *748:13 0.01126
27 *671:19 *748:9 0.000159795
28 *700:15 *748:13 0
29 *717:9 *748:9 0.000199665
30 *727:9 *748:9 0.0260986
31 *734:15 *748:13 0
32 *747:7 *748:7 0.000498802
*RES
1 *897:analog_ctrl[64] *748:7 10.0459 
2 *748:7 *748:9 349.471 
3 *748:9 *748:11 8 
4 *748:11 *748:13 132.935 
5 *748:13 *748:15 8 
6 *748:15 *748:17 158.215 
7 *748:17 *894:trimTC[0] 17.9608 
*END

*D_NET *749 0.322515
*CONN
*I *894:trimTC[1] I *D CF_BGR
*I *897:analog_ctrl[65] O *D soc_sys
*CAP
1 *894:trimTC[1] 0.000257918
2 *897:analog_ctrl[65] 0.00046312
3 *749:17 0.0108186
4 *749:15 0.0105607
5 *749:13 0.026129
6 *749:11 0.026129
7 *749:9 0.023052
8 *749:7 0.0235152
9 *749:7 *750:7 0.000349221
10 *749:7 *753:7 0
11 *749:9 *750:9 0.0715552
12 *749:9 *754:9 0.0276985
13 *749:13 *750:13 0
14 *749:13 *782:17 0.0714401
15 *894:trimTC[0] *894:trimTC[1] 0.000200966
16 *24:13 *894:trimTC[1] 0.000167505
17 *44:13 *749:17 0
18 *44:21 *749:17 0.0215738
19 *103:39 *749:9 0.00784065
20 *712:9 *749:9 0
21 *748:7 *749:7 0.000374185
22 *748:17 *749:17 0.000389816
*RES
1 *897:analog_ctrl[65] *749:7 9.53067 
2 *749:7 *749:9 931.211 
3 *749:9 *749:11 8 
4 *749:11 *749:13 132.076 
5 *749:13 *749:15 8 
6 *749:15 *749:17 52.9872 
7 *749:17 *894:trimTC[1] 19.3432 
*END

*D_NET *750 0.29771
*CONN
*I *894:trimTC[2] I *D CF_BGR
*I *897:analog_ctrl[66] O *D soc_sys
*CAP
1 *894:trimTC[2] 7.8793e-05
2 *897:analog_ctrl[66] 0.000457041
3 *750:17 0.00998765
4 *750:15 0.00990886
5 *750:13 0.0399208
6 *750:11 0.0399208
7 *750:9 0.0152613
8 *750:7 0.0157183
9 *894:trimTC[2] *894:trimTC[3] 0.000118669
10 *750:7 *751:7 0.000328622
11 *750:9 *751:9 0.0719353
12 *750:13 *782:17 0
13 *750:17 *751:17 0.0208285
14 *750:17 *752:21 0.00134066
15 *894:trimTC[0] *894:trimTC[2] 0
16 *712:9 *750:9 0
17 *748:17 *750:17 0
18 *749:7 *750:7 0.000349221
19 *749:9 *750:9 0.0715552
20 *749:13 *750:13 0
*RES
1 *897:analog_ctrl[66] *750:7 9.4448 
2 *750:7 *750:9 936.141 
3 *750:9 *750:11 8 
4 *750:11 *750:13 133.364 
5 *750:13 *750:15 8 
6 *750:15 *750:17 51.9717 
7 *750:17 *894:trimTC[2] 17.5632 
*END

*D_NET *751 0.2989
*CONN
*I *894:trimTC[3] I *D CF_BGR
*I *897:analog_ctrl[67] O *D soc_sys
*CAP
1 *894:trimTC[3] 0.000221211
2 *897:analog_ctrl[67] 0.000427092
3 *751:17 0.00992128
4 *751:15 0.00970007
5 *751:13 0.0402676
6 *751:11 0.0402676
7 *751:9 0.0155691
8 *751:7 0.0159962
9 *894:trimTC[3] *894:trimTC[4] 0
10 *751:7 *752:7 0.000308023
11 *751:7 *753:7 6.22155e-06
12 *751:9 *752:9 0.0729149
13 *894:trimTC[2] *894:trimTC[3] 0.000118669
14 *24:13 *894:trimTC[3] 8.98845e-05
15 *712:9 *751:9 0
16 *748:17 *751:17 0
17 *750:7 *751:7 0.000328622
18 *750:9 *751:9 0.0719353
19 *750:17 *751:17 0.0208285
*RES
1 *897:analog_ctrl[67] *751:7 9.35893 
2 *751:7 *751:9 948.818 
3 *751:9 *751:11 8 
4 *751:11 *751:13 133.106 
5 *751:13 *751:15 8 
6 *751:15 *751:17 49.3061 
7 *751:17 *894:trimTC[3] 18.9872 
*END

*D_NET *752 0.244039
*CONN
*I *894:trimTC[4] I *D CF_BGR
*I *897:analog_ctrl[68] O *D soc_sys
*CAP
1 *894:trimTC[4] 0.000124077
2 *897:analog_ctrl[68] 0.000403527
3 *752:21 0.00863277
4 *752:13 0.0489839
5 *752:11 0.0404752
6 *752:9 0.0315557
7 *752:7 0.0319592
8 *752:7 *753:7 0.000281586
9 *894:trimTC[3] *894:trimTC[4] 0
10 *24:13 *752:21 2.37336e-05
11 *104:26 *752:9 0
12 *712:9 *752:9 0.00703553
13 *750:17 *752:21 0.00134066
14 *751:7 *752:7 0.000308023
15 *751:9 *752:9 0.0729149
*RES
1 *897:analog_ctrl[68] *752:7 9.27307 
2 *752:7 *752:9 1061.5 
3 *752:9 *752:11 8 
4 *752:11 *752:13 133.879 
5 *752:13 *752:21 44.8419 
6 *752:21 *894:trimTC[4] 10.8068 
*END

*D_NET *753 0.319994
*CONN
*I *894:trimTC[5] I *D CF_BGR
*I *897:analog_ctrl[69] O *D soc_sys
*CAP
1 *894:trimTC[5] 0.000550366
2 *897:analog_ctrl[69] 0.00322822
3 *753:13 0.0222308
4 *753:11 0.0216805
5 *753:9 0.0304165
6 *753:7 0.0336447
7 *894:trimTC[5] *894:trimTC[6] 0.000561542
8 *894:trimTC[5] *758:29 9.70466e-05
9 *894:trimTC[5] *762:21 4.11979e-05
10 *753:7 *755:7 0.00204072
11 *753:9 *757:19 4.51403e-05
12 *753:9 *758:25 0.0893798
13 *753:9 *772:17 0.0137552
14 *753:9 *850:13 0.00132404
15 *753:9 *858:9 0.00613436
16 *753:13 *755:13 0.0367144
17 *753:13 *756:13 0.0112484
18 *753:13 *760:37 0.0353962
19 *657:21 *753:9 0.00359302
20 *675:9 *753:9 0
21 *686:9 *753:9 0.00762398
22 *748:7 *753:7 0
23 *749:7 *753:7 0
24 *751:7 *753:7 6.22155e-06
25 *752:7 *753:7 0.000281586
*RES
1 *897:analog_ctrl[69] *753:7 17.0011 
2 *753:7 *753:9 1231.94 
3 *753:9 *753:11 8 
4 *753:11 *753:13 141.607 
5 *753:13 *894:trimTC[5] 27.0335 
*END

*D_NET *754 0.300477
*CONN
*I *895:clk1_boostr I *D CF_BUF_HIZ
*I *897:analog_ctrl[6] O *D soc_sys
*CAP
1 *895:clk1_boostr 0.000372503
2 *897:analog_ctrl[6] 0.000476965
3 *754:17 0.0111331
4 *754:15 0.0107606
5 *754:13 0.0335485
6 *754:11 0.0335485
7 *754:9 0.00895464
8 *754:7 0.00943161
9 *754:7 *776:11 3.91434e-05
10 *754:9 *789:9 0
11 *895:vinp_n *895:clk1_boostr 0.000148687
12 *895:vinn_na *895:clk1_boostr 0
13 *895:e_na_boost *895:clk1_boostr 6.08516e-05
14 *895:e_n_boost *895:clk1_boostr 0.000102295
15 *70:18 *754:13 0.0280043
16 *103:39 *754:9 0.00139163
17 *105:29 *754:13 0.00244066
18 *528:15 *754:13 0.0364807
19 *676:7 *754:7 0
20 *676:9 *754:9 0
21 *687:7 *754:7 0
22 *712:9 *754:9 0
23 *717:9 *754:9 0.000781712
24 *721:23 *895:clk1_boostr 6.71419e-05
25 *722:13 *754:13 0.0388402
26 *732:29 *895:clk1_boostr 1.82152e-05
27 *743:7 *754:7 0.000398224
28 *743:9 *754:9 0.0322284
29 *743:17 *754:17 0.0235503
30 *749:9 *754:9 0.0276985
*RES
1 *897:analog_ctrl[6] *754:7 9.61653 
2 *754:7 *754:9 444.549 
3 *754:9 *754:11 8 
4 *754:11 *754:13 189.864 
5 *754:13 *754:15 8 
6 *754:15 *754:17 55.6528 
7 *754:17 *895:clk1_boostr 38.0162 
*END

*D_NET *755 0.374758
*CONN
*I *894:trimTC[6] I *D CF_BGR
*I *897:analog_ctrl[70] O *D soc_sys
*CAP
1 *894:trimTC[6] 0.000712909
2 *897:analog_ctrl[70] 0.00375514
3 *755:13 0.0198419
4 *755:11 0.019129
5 *755:9 0.0470455
6 *755:7 0.0508007
7 *894:trimTC[6] *758:29 8.45617e-05
8 *894:trimTC[6] *762:21 0.000378363
9 *755:7 *756:7 0.0025997
10 *755:9 *783:17 0.0277777
11 *755:9 *844:17 0.00064538
12 *755:9 *861:9 0.00546618
13 *755:13 *756:13 0.000170763
14 *755:13 *760:37 2.50672e-05
15 *755:13 *781:21 0.0741078
16 *755:13 *783:21 0.00082622
17 *894:trimTC[5] *894:trimTC[6] 0.000561542
18 *40:13 *755:9 0
19 *710:9 *755:9 0.0499311
20 *720:9 *755:9 0.000883699
21 *726:9 *755:9 0
22 *729:9 *755:9 0.021488
23 *730:9 *755:9 0.00977163
24 *753:7 *755:7 0.00204072
25 *753:13 *755:13 0.0367144
*RES
1 *897:analog_ctrl[70] *755:7 19.5341 
2 *755:7 *755:9 221.555 
3 *755:9 *755:11 8 
4 *755:11 *755:13 144.312 
5 *755:13 *894:trimTC[6] 26.1924 
*END

*D_NET *756 0.378015
*CONN
*I *894:trimCurr[0] I *D CF_BGR
*I *897:analog_ctrl[71] O *D soc_sys
*CAP
1 *894:trimCurr[0] 0.000163747
2 *897:analog_ctrl[71] 0.00512988
3 *756:13 0.0375673
4 *756:11 0.0374036
5 *756:9 0.0562732
6 *756:7 0.061403
7 *894:trimCurr[0] *894:trimCurr[4] 0.000157584
8 *894:trimCurr[0] *894:trimCurr[3] 0.000301319
9 *756:7 *757:7 0.00206957
10 *756:7 *760:7 0
11 *756:9 *780:9 0.0908184
12 *756:9 *800:9 0.00129517
13 *756:9 *814:9 0.00119718
14 *756:13 *894:CurrAbsTrim[0] 0
15 *756:13 *894:pd 1.22142e-05
16 *756:13 *758:29 0
17 *756:13 *759:37 0.054736
18 *756:13 *760:37 0.00166929
19 *756:13 *762:21 0.0125219
20 *725:9 *756:9 0.00127679
21 *753:13 *756:13 0.0112484
22 *755:7 *756:7 0.0025997
23 *755:13 *756:13 0.000170763
*RES
1 *897:analog_ctrl[71] *756:7 22.4536 
2 *756:7 *756:9 221.935 
3 *756:9 *756:11 8 
4 *756:11 *756:13 190.165 
5 *756:13 *894:trimCurr[0] 8.86707 
*END

*D_NET *757 0.364447
*CONN
*I *894:trimCurr[1] I *D CF_BGR
*I *897:analog_ctrl[72] O *D soc_sys
*CAP
1 *894:trimCurr[1] 0.000501578
2 *897:analog_ctrl[72] 0.00325723
3 *757:33 0.0326527
4 *757:31 0.0321511
5 *757:29 0.0292091
6 *757:27 0.0293796
7 *757:21 0.00324983
8 *757:19 0.00324876
9 *757:9 0.013948
10 *757:7 0.0170357
11 *894:trimCurr[1] *894:CurrAbsTrim[5] 0
12 *894:trimCurr[1] *894:trimCurr[5] 0.000135352
13 *894:trimCurr[1] *894:CurrAbsTrim[4] 0
14 *894:trimCurr[1] *894:mux2sel 0.000272112
15 *894:trimCurr[1] *894:mux1sel[0] 0.00108089
16 *894:trimCurr[1] *894:inl_ctrl[1] 0.00167409
17 *757:7 *758:17 8.146e-05
18 *757:7 *759:7 0.000333485
19 *757:7 *760:7 0
20 *757:9 *758:17 0.00436727
21 *757:9 *772:17 0.0174718
22 *757:9 *850:13 0.000409177
23 *757:9 *858:9 0.000450494
24 *757:9 *887:9 0.000335389
25 *757:9 *888:9 0.00227289
26 *757:21 *759:21 0.0117643
27 *757:21 *760:21 0.0142701
28 *757:27 *759:27 0
29 *757:27 *760:27 0.000120476
30 *757:29 *759:29 0.0278811
31 *757:29 *760:29 0.000140047
32 *757:29 *771:15 0.00901728
33 *757:33 *894:mux1sel[0] 1.58513e-05
34 *757:33 *770:25 0.0667124
35 *757:33 *782:21 0
36 *73:21 *757:29 0.0148226
37 *78:21 *757:29 0
38 *78:29 *757:21 0
39 *78:29 *757:29 0.00107518
40 *651:21 *757:9 0
41 *657:21 *757:9 0.00223188
42 *665:13 *757:21 0.00189994
43 *665:13 *757:29 0.00923596
44 *686:9 *757:19 2.22269e-05
45 *696:9 *757:9 0.00195351
46 *701:15 *757:29 4.62763e-05
47 *704:9 *757:9 0.00122781
48 *714:15 *757:19 5.58233e-05
49 *714:27 *757:29 0.000318291
50 *715:9 *757:9 0.0011152
51 *718:9 *757:9 0
52 *728:9 *757:9 0.000127201
53 *737:9 *757:9 0.00476107
54 *753:9 *757:19 4.51403e-05
55 *756:7 *757:7 0.00206957
*RES
1 *897:analog_ctrl[72] *757:7 17.1299 
2 *757:7 *757:9 57.6837 
3 *757:9 *757:19 31.9439 
4 *757:19 *757:21 157.843 
5 *757:21 *757:27 26.1382 
6 *757:27 *757:29 152.598 
7 *757:29 *757:31 8 
8 *757:31 *757:33 160.627 
9 *757:33 *894:trimCurr[1] 22.5377 
*END

*D_NET *758 0.40548
*CONN
*I *894:trimCurr[2] I *D CF_BGR
*I *897:analog_ctrl[73] O *D soc_sys
*CAP
1 *894:trimCurr[2] 0.000129236
2 *897:analog_ctrl[73] 0.00602121
3 *758:29 0.0237709
4 *758:27 0.0236416
5 *758:25 0.0195222
6 *758:23 0.019617
7 *758:17 0.00611602
8 *894:trimCurr[2] *894:CurrAbsTrim[0] 0
9 *894:trimCurr[2] *894:CurrAbsTrim[1] 0
10 *758:17 *759:7 8.74622e-05
11 *758:17 *778:7 1.81572e-05
12 *758:17 *779:7 0.00147074
13 *758:17 *780:7 0.00443202
14 *758:17 *888:9 0.00436727
15 *758:23 *781:15 0.000126526
16 *758:23 *855:7 0.00012361
17 *758:25 *772:17 0.00785279
18 *758:29 *894:finetune 9.03832e-06
19 *758:29 *894:CurrAbsTrim[0] 0.00173921
20 *758:29 *762:21 0.026381
21 *758:29 *763:13 6.25481e-06
22 *758:29 *764:13 0.0965391
23 *758:29 *778:13 0.00190208
24 *894:trimTC[6] *758:29 8.45617e-05
25 *894:trimTC[5] *758:29 9.70466e-05
26 *40:19 *758:17 0.00141954
27 *118:57 *758:17 0.000510961
28 *657:21 *758:25 0.0645636
29 *699:43 *758:17 0.000647638
30 *704:9 *758:17 0.000242841
31 *715:9 *758:17 0.00021176
32 *715:9 *758:25 0
33 *753:9 *758:25 0.0893798
34 *756:13 *758:29 0
35 *757:7 *758:17 8.146e-05
36 *757:9 *758:17 0.00436727
*RES
1 *897:analog_ctrl[73] *758:17 48.8285 
2 *758:17 *758:23 16.2707 
3 *758:23 *758:25 1149.54 
4 *758:25 *758:27 8 
5 *758:27 *758:29 185.013 
6 *758:29 *894:trimCurr[2] 10.6152 
*END

*D_NET *759 0.387812
*CONN
*I *894:trimCurr[3] I *D CF_BGR
*I *897:analog_ctrl[74] O *D soc_sys
*CAP
1 *894:trimCurr[3] 0.000364113
2 *897:analog_ctrl[74] 0.00124727
3 *759:37 0.0111774
4 *759:35 0.0108133
5 *759:33 0.0491727
6 *759:31 0.0491727
7 *759:29 0.00505779
8 *759:27 0.00517619
9 *759:21 0.00451575
10 *759:19 0.00450429
11 *759:9 0.0124544
12 *759:7 0.0135947
13 *894:trimCurr[3] *894:CurrAbsTrim[0] 0.000167437
14 *759:7 *760:7 0.000999403
15 *759:9 *762:17 0
16 *759:29 *760:29 0.0244771
17 *759:29 *771:15 0.0037065
18 *759:37 *760:37 0.0547397
19 *892:dft_outc[1] *759:33 0
20 *894:trimCurr[0] *894:trimCurr[3] 0.000301319
21 *78:29 *759:21 0
22 *665:9 *759:9 0.0232957
23 *665:13 *759:19 4.8098e-05
24 *665:13 *759:29 0.000917237
25 *670:9 *759:19 2.05503e-05
26 *671:21 *759:21 0.0021935
27 *687:9 *759:9 0.0020353
28 *708:9 *759:9 0.00168406
29 *711:19 *759:19 3.3405e-05
30 *714:15 *759:19 0.000134228
31 *722:17 *759:33 0
32 *723:9 *759:9 0.000886081
33 *727:17 *759:33 0
34 *739:9 *759:9 0.0101194
35 *756:13 *759:37 0.054736
36 *757:7 *759:7 0.000333485
37 *757:21 *759:21 0.0117643
38 *757:27 *759:27 0
39 *757:29 *759:29 0.0278811
40 *758:17 *759:7 8.74622e-05
*RES
1 *897:analog_ctrl[74] *759:7 11.9779 
2 *759:7 *759:9 57.3029 
3 *759:9 *759:19 31.5917 
4 *759:19 *759:21 132.592 
5 *759:21 *759:27 25.0818 
6 *759:27 *759:29 51.5331 
7 *759:29 *759:31 8 
8 *759:31 *759:33 163.419 
9 *759:33 *759:35 8 
10 *759:35 *759:37 104.126 
11 *759:37 *894:trimCurr[3] 25.2591 
*END

*D_NET *760 0.388155
*CONN
*I *894:trimCurr[4] I *D CF_BGR
*I *897:analog_ctrl[75] O *D soc_sys
*CAP
1 *894:trimCurr[4] 0.000199451
2 *897:analog_ctrl[75] 0.00491401
3 *760:37 0.0138299
4 *760:35 0.0136305
5 *760:33 0.0499807
6 *760:31 0.0499807
7 *760:29 0.0050934
8 *760:27 0.00521483
9 *760:21 0.0066144
10 *760:19 0.00655148
11 *760:9 0.00806504
12 *760:7 0.0129205
13 *894:trimCurr[4] *894:CurrAbsTrim[0] 2.16518e-05
14 *894:trimCurr[4] *894:inl_ctrl[0] 0
15 *760:7 *761:13 0.000774398
16 *760:7 *762:15 2.0952e-05
17 *760:29 *771:15 0.0038504
18 *760:33 *784:23 0
19 *760:37 *894:inl_ctrl[0] 0.004013
20 *760:37 *781:21 0.00197095
21 *894:trimCurr[0] *894:trimCurr[4] 0.000157584
22 *20:25 *760:33 0.0019362
23 *78:29 *760:21 0
24 *665:13 *760:21 0.004387
25 *665:13 *760:29 0.00105818
26 *671:21 *760:29 0.0116735
27 *694:9 *760:19 2.11066e-05
28 *701:15 *760:29 9.4175e-05
29 *702:9 *760:9 0.00115636
30 *702:13 *760:9 0.00122017
31 *702:13 *760:19 2.11066e-05
32 *702:23 *760:29 0.000182912
33 *710:9 *760:9 0.0236239
34 *714:15 *760:19 2.24267e-05
35 *726:9 *760:9 0
36 *738:9 *760:9 0.0231163
37 *753:13 *760:37 0.0353962
38 *755:13 *760:37 2.50672e-05
39 *756:7 *760:7 0
40 *756:13 *760:37 0.00166929
41 *757:7 *760:7 0
42 *757:21 *760:21 0.0142701
43 *757:27 *760:27 0.000120476
44 *757:29 *760:29 0.000140047
45 *759:7 *760:7 0.000999403
46 *759:29 *760:29 0.0244771
47 *759:37 *760:37 0.0547397
*RES
1 *897:analog_ctrl[75] *760:7 19.8776 
2 *760:7 *760:9 56.9221 
3 *760:9 *760:19 31.42 
4 *760:19 *760:21 174.041 
5 *760:21 *760:27 25.0818 
6 *760:27 *760:29 45.8659 
7 *760:29 *760:31 8 
8 *760:31 *760:33 163.419 
9 *760:33 *760:35 8 
10 *760:35 *760:37 110.824 
11 *760:37 *894:trimCurr[4] 9.0164 
*END

*D_NET *761 0.387979
*CONN
*I *894:trimCurr[5] I *D CF_BGR
*I *897:analog_ctrl[76] O *D soc_sys
*CAP
1 *894:trimCurr[5] 0.010532
2 *897:analog_ctrl[76] 0.00733416
3 *761:25 0.0527393
4 *761:23 0.0422072
5 *761:21 0.0173672
6 *761:19 0.0173672
7 *761:17 0.00697481
8 *761:15 0.00697481
9 *761:13 0.00733416
10 *894:trimCurr[5] *894:mux2sel 2.79505e-05
11 *894:trimCurr[5] *894:inl_ctrl[1] 6.42047e-05
12 *894:trimCurr[5] *894:inl_ctrl[4] 0.000687019
13 *894:trimCurr[5] *767:17 2.13985e-05
14 *761:13 *897:sram_dat_i[12] 0.000773194
15 *761:13 *762:15 0.00665839
16 *761:13 *771:9 0.0085322
17 *761:13 *826:21 0.000131084
18 *761:13 *862:7 0.000769709
19 *761:17 *770:17 0.00360411
20 *761:17 *795:9 0.000812878
21 *761:17 *797:9 0.00144905
22 *761:17 *808:9 0.00154641
23 *761:17 *813:11 0.000133345
24 *761:21 *769:13 0.0833192
25 *761:21 *770:21 0.000103479
26 *761:25 *769:17 0.0364713
27 *894:trimCurr[1] *894:trimCurr[5] 0.000135352
28 *103:39 *761:13 0
29 *653:14 *761:21 0
30 *665:9 *761:13 0.00035702
31 *673:17 *761:17 0
32 *733:9 *761:13 0.000110915
33 *734:9 *761:13 0.000127194
34 *734:15 *761:21 0
35 *739:9 *761:17 0.00049575
36 *745:9 *761:13 0.000277518
37 *748:13 *761:21 0.0717654
38 *760:7 *761:13 0.000774398
*RES
1 *897:analog_ctrl[76] *761:13 44.2165 
2 *761:13 *761:15 8 
3 *761:15 *761:17 201.571 
4 *761:17 *761:19 8 
5 *761:19 *761:21 154.745 
6 *761:21 *761:23 8 
7 *761:23 *761:25 159.357 
8 *761:25 *894:trimCurr[5] 25.4299 
*END

*D_NET *762 0.353238
*CONN
*I *894:CurrAbsTrim[0] I *D CF_BGR
*I *897:analog_ctrl[77] O *D soc_sys
*CAP
1 *894:CurrAbsTrim[0] 0.00138423
2 *897:analog_ctrl[77] 0.00467723
3 *762:21 0.0376162
4 *762:19 0.036232
5 *762:17 0.0517718
6 *762:15 0.056449
7 *894:CurrAbsTrim[0] *894:pd 4.53098e-05
8 *762:15 *763:7 0.000615786
9 *762:15 *764:7 2.77015e-05
10 *762:15 *767:7 0
11 *762:15 *772:9 0.000131084
12 *762:15 *779:9 0.000150324
13 *762:15 *855:7 0.000949213
14 *762:15 *870:11 0.000932954
15 *762:17 *790:9 0.000282353
16 *762:21 *894:finetune 3.8199e-05
17 *894:trimCurr[4] *894:CurrAbsTrim[0] 2.16518e-05
18 *894:trimCurr[3] *894:CurrAbsTrim[0] 0.000167437
19 *894:trimCurr[2] *894:CurrAbsTrim[0] 0
20 *894:trimTC[6] *762:21 0.000378363
21 *894:trimTC[5] *762:21 4.11979e-05
22 *40:21 *762:15 0.000101533
23 *650:17 *762:17 0.00914248
24 *656:25 *762:17 0.0106971
25 *665:9 *762:15 0.00213502
26 *672:9 *762:17 0.0619617
27 *673:17 *762:17 0.0297368
28 *711:19 *762:17 0.000229945
29 *739:9 *762:17 0
30 *756:13 *894:CurrAbsTrim[0] 0
31 *756:13 *762:21 0.0125219
32 *758:29 *894:CurrAbsTrim[0] 0.00173921
33 *758:29 *762:21 0.026381
34 *759:9 *762:17 0
35 *760:7 *762:15 2.0952e-05
36 *761:13 *762:15 0.00665839
*RES
1 *897:analog_ctrl[77] *762:15 43.6355 
2 *762:15 *762:17 206.703 
3 *762:17 *762:19 8 
4 *762:19 *762:21 175.31 
5 *762:21 *894:CurrAbsTrim[0] 15.6844 
*END

*D_NET *763 0.414309
*CONN
*I *894:CurrAbsTrim[1] I *D CF_BGR
*I *897:analog_ctrl[78] O *D soc_sys
*CAP
1 *894:CurrAbsTrim[1] 0.000206771
2 *897:analog_ctrl[78] 0.000802301
3 *763:13 0.0155917
4 *763:11 0.0153849
5 *763:9 0.035962
6 *763:7 0.0367643
7 *894:CurrAbsTrim[1] *894:CurrAbsTrim[2] 0.000225704
8 *894:CurrAbsTrim[1] *894:CurrAbsTrim[3] 0.00011423
9 *763:7 *764:7 0.000615786
10 *763:9 *897:sram_dat_i[21] 5.00306e-05
11 *763:9 *897:sram_dat_i[24] 5.63283e-05
12 *763:9 *764:9 5.26984e-05
13 *763:9 *766:9 0.0958417
14 *763:9 *775:9 0.0195786
15 *763:9 *819:9 0
16 *763:13 *764:13 0.000158143
17 *763:13 *766:13 0.0964182
18 *763:13 *778:13 1.36509e-05
19 *763:13 *780:13 0.0958502
20 *894:trimCurr[2] *894:CurrAbsTrim[1] 0
21 *67:229 *763:9 0
22 *67:249 *763:9 0
23 *673:9 *763:9 0
24 *717:9 *763:9 0
25 *733:9 *763:9 0
26 *748:9 *763:9 0
27 *758:29 *763:13 6.25481e-06
28 *762:15 *763:7 0.000615786
*RES
1 *897:analog_ctrl[78] *763:7 10.5611 
2 *763:7 *763:9 1231.24 
3 *763:9 *763:11 8 
4 *763:11 *763:13 177.714 
5 *763:13 *894:CurrAbsTrim[1] 14.1263 
*END

*D_NET *764 0.447664
*CONN
*I *894:CurrAbsTrim[2] I *D CF_BGR
*I *897:analog_ctrl[79] O *D soc_sys
*CAP
1 *894:CurrAbsTrim[2] 6.32791e-05
2 *897:analog_ctrl[79] 0.000829841
3 *764:13 0.0154536
4 *764:11 0.0153903
5 *764:9 0.020262
6 *764:7 0.0210918
7 *894:CurrAbsTrim[2] *894:CurrAbsTrim[3] 0.000225542
8 *764:7 *766:7 0.000637563
9 *764:7 *767:7 1.38508e-05
10 *764:9 *766:9 0.0956285
11 *764:9 *767:9 0.0751574
12 *764:9 *775:9 0.00923726
13 *764:13 *778:13 0.0959796
14 *894:CurrAbsTrim[1] *894:CurrAbsTrim[2] 0.000225704
15 *733:9 *764:9 7.48354e-05
16 *758:29 *764:13 0.0965391
17 *762:15 *764:7 2.77015e-05
18 *763:7 *764:7 0.000615786
19 *763:9 *764:9 5.26984e-05
20 *763:13 *764:13 0.000158143
*RES
1 *897:analog_ctrl[79] *764:7 10.7328 
2 *764:7 *764:9 1227.01 
3 *764:9 *764:11 8 
4 *764:11 *764:13 177.8 
5 *764:13 *894:CurrAbsTrim[2] 11.2159 
*END

*D_NET *766 0.402224
*CONN
*I *894:CurrAbsTrim[3] I *D CF_BGR
*I *897:analog_ctrl[80] O *D soc_sys
*CAP
1 *894:CurrAbsTrim[3] 0.000243236
2 *897:analog_ctrl[80] 0.000831109
3 *766:13 0.0339528
4 *766:11 0.0337095
5 *766:9 0.0162188
6 *766:7 0.0170499
7 *766:7 *767:7 0.000634166
8 *766:9 *775:9 0.0106971
9 *766:13 *780:13 2.17681e-05
10 *894:CurrAbsTrim[1] *894:CurrAbsTrim[3] 0.00011423
11 *894:CurrAbsTrim[2] *894:CurrAbsTrim[3] 0.000225542
12 *763:9 *766:9 0.0958417
13 *763:13 *766:13 0.0964182
14 *764:7 *766:7 0.000637563
15 *764:9 *766:9 0.0956285
*RES
1 *897:analog_ctrl[80] *766:7 10.6469 
2 *766:7 *766:9 1229.12 
3 *766:9 *766:11 8 
4 *766:11 *766:13 177.628 
5 *766:13 *894:CurrAbsTrim[3] 14.4836 
*END

*D_NET *767 0.326179
*CONN
*I *894:CurrAbsTrim[4] I *D CF_BGR
*I *897:analog_ctrl[81] O *D soc_sys
*CAP
1 *894:CurrAbsTrim[4] 0.000109021
2 *897:analog_ctrl[81] 0.000971055
3 *767:17 0.00983149
4 *767:15 0.00972247
5 *767:13 0.0542174
6 *767:11 0.0542174
7 *767:9 0.0142977
8 *767:7 0.0152688
9 *894:CurrAbsTrim[4] *894:CurrAbsTrim[5] 0.000131189
10 *894:CurrAbsTrim[4] *894:mux2sel 0.000107452
11 *767:7 *769:7 0.000293849
12 *767:9 *771:9 0.00139163
13 *767:9 *775:9 0.00564429
14 *767:9 *775:19 0.00014378
15 *767:9 *782:9 0.0611353
16 *767:9 *782:13 0.00402968
17 *767:13 *773:46 0
18 *767:17 *779:17 0.018099
19 *767:17 *782:21 0
20 *894:trimCurr[5] *767:17 2.13985e-05
21 *894:trimCurr[1] *894:CurrAbsTrim[4] 0
22 *733:9 *767:9 0.000741119
23 *762:15 *767:7 0
24 *764:7 *767:7 1.38508e-05
25 *764:9 *767:9 0.0751574
26 *766:7 *767:7 0.000634166
*RES
1 *897:analog_ctrl[81] *767:7 10.8187 
2 *767:7 *767:9 965.016 
3 *767:9 *767:11 8 
4 *767:11 *767:13 177.328 
5 *767:13 *767:15 8 
6 *767:15 *767:17 42.9595 
7 *767:17 *894:CurrAbsTrim[4] 17.6873 
*END

*D_NET *768 0.308709
*CONN
*I *894:CurrAbsTrim[5] I *D CF_BGR
*I *897:analog_ctrl[82] O *D soc_sys
*CAP
1 *894:CurrAbsTrim[5] 0.000411176
2 *897:analog_ctrl[82] 0.00216795
3 *768:18 0.0286737
4 *768:16 0.0282626
5 *768:14 0.0645428
6 *768:12 0.0667107
7 *894:CurrAbsTrim[5] *894:mux2sel 0.00013436
8 *768:14 *774:18 0
9 *768:18 *894:inl_ctrl[1] 0
10 *894:trimCurr[1] *894:CurrAbsTrim[5] 0
11 *894:CurrAbsTrim[4] *894:CurrAbsTrim[5] 0.000131189
12 *24:13 *768:18 0
13 *69:21 *768:18 0.00324553
14 *71:29 *768:18 0.0825237
15 *74:61 *768:12 2.06571e-05
16 *81:18 *768:18 0.031842
17 *118:57 *768:12 3.38012e-05
18 *632:16 *768:14 9.07644e-06
*RES
1 *897:analog_ctrl[82] *768:12 10.4948 
2 *768:12 *768:14 215.208 
3 *768:14 *768:16 8 
4 *768:16 *768:18 169.686 
5 *768:18 *894:CurrAbsTrim[5] 18.2484 
*END

*D_NET *769 0.39224
*CONN
*I *894:inl_ctrl[0] I *D CF_BGR
*I *897:analog_ctrl[83] O *D soc_sys
*CAP
1 *894:inl_ctrl[0] 0.00443454
2 *897:analog_ctrl[83] 0.00286732
3 *769:17 0.039779
4 *769:15 0.0353445
5 *769:13 0.0158958
6 *769:11 0.0158958
7 *769:9 0.00724058
8 *769:7 0.0101079
9 *894:inl_ctrl[0] *781:21 0.0127089
10 *769:7 *770:7 0.000790829
11 *769:9 *824:21 0.000416294
12 *769:9 *840:21 0.0136917
13 *769:13 *770:21 0.0831832
14 *894:trimCurr[4] *894:inl_ctrl[0] 0
15 *72:13 *769:13 0.000349415
16 *646:10 *769:9 0.000553853
17 *651:13 *769:9 0
18 *701:9 *769:9 0.0236993
19 *719:9 *769:9 0.000348962
20 *740:9 *769:9 0.000834183
21 *760:37 *894:inl_ctrl[0] 0.004013
22 *761:21 *769:13 0.0833192
23 *761:25 *769:17 0.0364713
24 *767:7 *769:7 0.000293849
*RES
1 *897:analog_ctrl[83] *769:7 14.9403 
2 *769:7 *769:9 321.299 
3 *769:9 *769:11 8 
4 *769:11 *769:13 156.72 
5 *769:13 *769:15 8 
6 *769:15 *769:17 160.373 
7 *769:17 *894:inl_ctrl[0] 44.7084 
*END

*D_NET *770 0.424228
*CONN
*I *894:inl_ctrl[1] I *D CF_BGR
*I *897:analog_ctrl[84] O *D soc_sys
*CAP
1 *894:inl_ctrl[1] 0.00133678
2 *897:analog_ctrl[84] 0.00121754
3 *770:25 0.0231156
4 *770:23 0.0217788
5 *770:21 0.0209041
6 *770:19 0.0209041
7 *770:17 0.00369532
8 *770:15 0.00391155
9 *770:9 0.00385945
10 *770:7 0.00486076
11 *894:inl_ctrl[1] *894:mux1sel[0] 4.11979e-05
12 *894:inl_ctrl[1] *894:inl_ctrl[3] 2.67855e-05
13 *894:inl_ctrl[1] *894:inl_ctrl[2] 8.3913e-05
14 *894:inl_ctrl[1] *894:inl_ctrl[4] 0.000520056
15 *770:7 *771:7 0.000647411
16 *770:7 *772:7 3.90527e-05
17 *770:9 *772:9 0.00214063
18 *770:9 *779:9 0.000148407
19 *770:15 *793:7 0.000404166
20 *770:15 *862:7 0.000404166
21 *770:17 *808:9 0.0045303
22 *770:17 *813:11 0.000278027
23 *770:21 *779:13 0.0917791
24 *770:25 *894:mux1sel[0] 0.000881712
25 *894:trimCurr[5] *894:inl_ctrl[1] 6.42047e-05
26 *894:trimCurr[1] *894:inl_ctrl[1] 0.00167409
27 *26:17 *770:25 0.0401081
28 *40:21 *770:9 0.000829116
29 *72:13 *770:21 0.000248472
30 *647:25 *770:9 0
31 *665:9 *770:9 0.000112617
32 *670:9 *770:9 0.00215993
33 *671:9 *770:17 0.0140015
34 *676:17 *770:9 0.00172543
35 *723:9 *770:17 0.000669076
36 *739:9 *770:17 0.000733149
37 *757:33 *770:25 0.0667124
38 *761:17 *770:17 0.00360411
39 *761:21 *770:21 0.000103479
40 *768:18 *894:inl_ctrl[1] 0
41 *769:7 *770:7 0.000790829
42 *769:13 *770:21 0.0831832
*RES
1 *897:analog_ctrl[84] *770:7 11.5915 
2 *770:7 *770:9 120.578 
3 *770:9 *770:15 16.8288 
4 *770:15 *770:17 198.754 
5 *770:17 *770:19 8 
6 *770:19 *770:21 176.297 
7 *770:21 *770:23 8 
8 *770:23 *770:25 158.215 
9 *770:25 *894:inl_ctrl[1] 25.3636 
*END

*D_NET *771 0.375089
*CONN
*I *894:inl_ctrl[2] I *D CF_BGR
*I *897:analog_ctrl[85] O *D soc_sys
*CAP
1 *894:inl_ctrl[2] 0.000616636
2 *897:analog_ctrl[85] 0.000976961
3 *771:17 0.0362413
4 *771:15 0.117844
5 *771:9 0.098907
6 *771:7 0.0176649
7 *894:inl_ctrl[2] *894:inl_ctrl[6] 4.62763e-05
8 *894:inl_ctrl[2] *894:inl_ctrl[3] 0.000597082
9 *894:inl_ctrl[2] *894:inl_ctrl[4] 0.00013907
10 *771:7 *772:7 0.000644764
11 *771:9 *775:9 0.0115219
12 *771:9 *779:9 0.000806261
13 *771:9 *782:9 0.00169996
14 *771:17 *775:33 0
15 *894:inl_ctrl[1] *894:inl_ctrl[2] 8.3913e-05
16 *25:17 *771:17 0.0228674
17 *69:17 *771:17 0.00979765
18 *103:39 *771:9 0
19 *665:9 *771:9 0
20 *665:13 *771:15 0.00687299
21 *671:21 *771:15 0.00676092
22 *676:17 *771:9 0.000806261
23 *701:15 *771:15 0.00100539
24 *702:23 *771:15 0.00129302
25 *711:19 *771:15 0.00292013
26 *714:15 *771:15 0.00160203
27 *716:15 *771:15 0.00205304
28 *733:9 *771:9 0.00169996
29 *734:9 *771:9 0.00139163
30 *745:9 *771:9 0.00108297
31 *757:29 *771:15 0.00901728
32 *759:29 *771:15 0.0037065
33 *760:29 *771:15 0.0038504
34 *761:13 *771:9 0.0085322
35 *767:9 *771:9 0.00139163
36 *770:7 *771:7 0.000647411
*RES
1 *897:analog_ctrl[85] *771:7 10.9475 
2 *771:7 *771:9 54.3835 
3 *771:9 *771:15 23.6791 
4 *771:15 *771:17 161.515 
5 *771:17 *894:inl_ctrl[2] 19.6193 
*END

*D_NET *772 0.395104
*CONN
*I *894:inl_ctrl[3] I *D CF_BGR
*I *897:analog_ctrl[86] O *D soc_sys
*CAP
1 *894:inl_ctrl[3] 0.000799478
2 *897:analog_ctrl[86] 0.00134646
3 *772:29 0.0166579
4 *772:27 0.0781355
5 *772:17 0.0982074
6 *772:15 0.0372694
7 *772:9 0.00266268
8 *772:7 0.00267006
9 *894:inl_ctrl[3] *894:inl_ctrl[6] 4.93791e-05
10 *894:inl_ctrl[3] *894:inl_ctrl[5] 7.50808e-05
11 *894:inl_ctrl[3] *894:inl_ctrl[4] 0.00020859
12 *772:7 *775:7 0
13 *772:9 *779:9 0.00425907
14 *772:9 *826:21 0.000330531
15 *772:15 *897:sram_dat_i[1] 0.00275913
16 *772:15 *800:7 0.00276497
17 *772:17 *781:17 0.00584301
18 *772:27 *784:13 0.0054508
19 *772:27 *784:23 0.0411263
20 *894:inl_ctrl[1] *894:inl_ctrl[3] 2.67855e-05
21 *894:inl_ctrl[2] *894:inl_ctrl[3] 0.000597082
22 *25:17 *772:29 0.000299521
23 *40:21 *772:9 0.000610641
24 *69:17 *772:27 0.000727897
25 *69:17 *772:29 0.0297098
26 *648:33 *772:7 0
27 *657:21 *772:17 0.00543833
28 *686:9 *772:17 0.00198737
29 *696:9 *772:17 0.00493955
30 *699:33 *772:7 0.000376256
31 *704:9 *772:17 0.00387
32 *715:9 *772:17 0.00387
33 *718:9 *772:17 0
34 *753:9 *772:17 0.0137552
35 *757:9 *772:17 0.0174718
36 *758:25 *772:17 0.00785279
37 *762:15 *772:9 0.000131084
38 *770:7 *772:7 3.90527e-05
39 *770:9 *772:9 0.00214063
40 *771:7 *772:7 0.000644764
*RES
1 *897:analog_ctrl[86] *772:7 11.4197 
2 *772:7 *772:9 64.235 
3 *772:9 *772:15 21.5944 
4 *772:15 *772:17 128.893 
5 *772:17 *772:27 28.0715 
6 *772:27 *772:29 71.6613 
7 *772:29 *894:inl_ctrl[3] 22.0617 
*END

*D_NET *773 0.296574
*CONN
*I *894:inl_ctrl[4] I *D CF_BGR
*I *897:analog_ctrl[87] O *D soc_sys
*CAP
1 *894:inl_ctrl[4] 0.000476205
2 *897:analog_ctrl[87] 0.00733596
3 *773:50 0.0126368
4 *773:46 0.0655431
5 *773:44 0.0533825
6 *773:42 0.0371842
7 *773:40 0.0445202
8 *894:inl_ctrl[4] *894:inl_ctrl[5] 0.000144582
9 *773:40 *774:16 0.000537827
10 *773:40 *776:13 0.0015192
11 *773:40 *777:9 0.00197829
12 *773:40 *787:11 0.00369999
13 *773:42 *776:13 0.00203082
14 *773:42 *776:31 0.00685737
15 *773:42 *777:9 0.0121054
16 *773:42 *787:11 0.0048659
17 *773:50 *779:17 0
18 *894:trimCurr[5] *894:inl_ctrl[4] 0.000687019
19 *894:inl_ctrl[1] *894:inl_ctrl[4] 0.000520056
20 *894:inl_ctrl[3] *894:inl_ctrl[4] 0.00020859
21 *894:inl_ctrl[2] *894:inl_ctrl[4] 0.00013907
22 *74:61 *773:40 8.9705e-06
23 *74:77 *773:40 0.00677162
24 *118:57 *773:40 0.00528266
25 *118:75 *773:42 0.00103845
26 *692:17 *773:42 0.00693441
27 *694:17 *773:42 0.00639516
28 *699:47 *773:40 0.000355473
29 *699:47 *773:42 0
30 *699:49 *773:42 0.0132827
31 *741:9 *773:40 0.00013184
32 *767:13 *773:46 0
*RES
1 *897:analog_ctrl[87] *773:40 47.4128 
2 *773:40 *773:42 137.185 
3 *773:42 *773:44 8 
4 *773:44 *773:46 175.052 
5 *773:46 *773:50 49.5632 
6 *773:50 *894:inl_ctrl[4] 20.6817 
*END

*D_NET *774 0.241227
*CONN
*I *894:inl_ctrl[5] I *D CF_BGR
*I *897:analog_ctrl[88] O *D soc_sys
*CAP
1 *894:inl_ctrl[5] 0.00110219
2 *897:analog_ctrl[88] 0.00193613
3 *774:22 0.0543135
4 *774:20 0.0532113
5 *774:18 0.0632786
6 *774:16 0.0652148
7 *894:inl_ctrl[5] *894:inl_ctrl[6] 0.000110007
8 *894:inl_ctrl[5] *775:33 0.00112149
9 *894:inl_ctrl[3] *894:inl_ctrl[5] 7.50808e-05
10 *894:inl_ctrl[4] *894:inl_ctrl[5] 0.000144582
11 *26:13 *774:22 0
12 *44:19 *774:22 0
13 *69:21 *774:22 0
14 *74:61 *774:16 0.000181522
15 *768:14 *774:18 0
16 *773:40 *774:16 0.000537827
*RES
1 *897:analog_ctrl[88] *774:16 12.1855 
2 *774:16 *774:18 211.146 
3 *774:18 *774:20 8 
4 *774:20 *774:22 174.365 
5 *774:22 *894:inl_ctrl[5] 30.808 
*END

*D_NET *775 0.329323
*CONN
*I *894:inl_ctrl[6] I *D CF_BGR
*I *897:analog_ctrl[89] O *D soc_sys
*CAP
1 *894:inl_ctrl[6] 0.000128089
2 *897:analog_ctrl[89] 0.0010369
3 *775:33 0.0174978
4 *775:31 0.0173697
5 *775:29 0.0331944
6 *775:27 0.0333891
7 *775:21 0.0117695
8 *775:19 0.0117373
9 *775:9 0.0502901
10 *775:7 0.0511644
11 *775:7 *778:7 7.94202e-05
12 *775:9 *782:9 0.005125
13 *775:9 *782:13 0.000752848
14 *775:19 *782:13 0.00014378
15 *775:29 *782:17 0
16 *894:inl_ctrl[5] *894:inl_ctrl[6] 0.000110007
17 *894:inl_ctrl[5] *775:33 0.00112149
18 *894:inl_ctrl[3] *894:inl_ctrl[6] 4.93791e-05
19 *894:inl_ctrl[2] *894:inl_ctrl[6] 4.62763e-05
20 *74:77 *775:9 9.01122e-05
21 *103:39 *775:9 0
22 *648:33 *775:7 0.000852015
23 *652:13 *775:21 0.000270428
24 *657:9 *775:21 0.0040605
25 *657:19 *775:19 0.000173416
26 *672:21 *775:21 0.0153034
27 *672:39 *775:21 0.000555221
28 *695:13 *775:21 0
29 *695:21 *775:21 0.00398331
30 *696:13 *775:21 0
31 *696:21 *775:29 0.000497154
32 *699:33 *775:7 2.96805e-05
33 *707:13 *775:21 0.00235705
34 *723:13 *775:21 0.000497404
35 *725:13 *775:29 4.1352e-05
36 *728:29 *775:19 0.000173416
37 *728:51 *775:21 0.00269659
38 *730:13 *775:29 0.00557132
39 *745:9 *775:9 0.000341849
40 *763:9 *775:9 0.0195786
41 *764:9 *775:9 0.00923726
42 *766:9 *775:9 0.0106971
43 *767:9 *775:9 0.00564429
44 *767:9 *775:19 0.00014378
45 *771:9 *775:9 0.0115219
46 *771:17 *775:33 0
47 *772:7 *775:7 0
*RES
1 *897:analog_ctrl[89] *775:7 10.604 
2 *775:7 *775:9 159.992 
3 *775:9 *775:19 33.4383 
4 *775:19 *775:21 345.079 
5 *775:21 *775:27 26.1382 
6 *775:27 *775:29 118.681 
7 *775:29 *775:31 8 
8 *775:31 *775:33 53.8757 
9 *775:33 *894:inl_ctrl[6] 18.7866 
*END

*D_NET *776 0.274215
*CONN
*I *892:pd I *D CF_ADC_SAR12
*I *893:pd I *D CF_ADC_SAR12_sar_refs
*I *897:analog_ctrl[8] O *D soc_sys
*CAP
1 *892:pd 0.000423799
2 *893:pd 1.46071e-05
3 *897:analog_ctrl[8] 0.000270282
4 *776:35 0.0115724
5 *776:33 0.0111486
6 *776:31 0.0133645
7 *776:21 0.00888421
8 *776:15 0.00886961
9 *776:13 0.0253382
10 *776:11 0.012244
11 *893:pd *893:pd_ana 5.35213e-05
12 *776:11 *787:9 0.000202982
13 *776:11 *787:11 0
14 *776:13 *777:9 0.0305806
15 *776:13 *787:11 0.0046552
16 *776:21 *787:47 0.0243213
17 *776:31 *777:9 0.0383942
18 *892:sample_width[1] *776:35 3.64335e-05
19 *892:test_sea *776:35 0.00222776
20 *892:vdda *776:35 2.37336e-05
21 *892:dft_outc[1] *892:pd 0.000115849
22 *892:dft_outc[1] *776:35 0.0154402
23 *892:dft_outc[0] *892:pd 1.7451e-05
24 *893:hiz *893:pd 7.05823e-05
25 *893:hiz *776:21 5.43777e-05
26 *67:241 *776:13 0.00142011
27 *112:37 *776:11 0
28 *118:57 *776:13 0.00206454
29 *118:75 *776:13 0
30 *118:75 *776:31 0
31 *646:8 *776:35 0.000315556
32 *647:21 *776:35 0.000301979
33 *648:17 *776:35 0.00112794
34 *648:37 *776:11 0
35 *674:13 *776:21 0.00325175
36 *676:7 *776:11 1.38508e-05
37 *687:21 *776:35 0.00477505
38 *693:19 *776:35 0.00434858
39 *699:17 *776:11 0
40 *699:21 *776:13 0.00849905
41 *700:11 *776:13 0
42 *720:29 *892:pd 0.000239498
43 *720:29 *776:35 0.0278199
44 *726:13 *892:pd 0.000653372
45 *731:17 *776:35 0.000206947
46 *741:9 *776:13 0.000405585
47 *754:7 *776:11 3.91434e-05
48 *773:40 *776:13 0.0015192
49 *773:42 *776:13 0.00203082
50 *773:42 *776:31 0.00685737
*RES
1 *897:analog_ctrl[8] *776:11 13.9805 
2 *776:11 *776:13 503.709 
3 *776:13 *776:15 8 
4 *776:15 *776:21 46.1253 
5 *776:21 *893:pd 9.02536 
6 *776:13 *776:31 488.215 
7 *776:31 *776:33 8 
8 *776:33 *776:35 67.8477 
9 *776:35 *892:pd 26.5417 
*END

*D_NET *777 0.307093
*CONN
*I *894:mux1sel[0] I *D CF_BGR
*I *897:analog_ctrl[90] O *D soc_sys
*CAP
1 *894:mux1sel[0] 0.00386207
2 *897:analog_ctrl[90] 3.34928e-05
3 *777:13 0.0547528
4 *777:11 0.0508907
5 *777:9 0.0203785
6 *777:7 0.020412
7 *894:mux1sel[0] *894:mux2sel 0.000158439
8 *894:mux1sel[0] *894:pd_ibg 0.000580444
9 *894:mux1sel[0] *784:25 0
10 *777:9 *787:11 0.0305294
11 *894:trimCurr[1] *894:mux1sel[0] 0.00108089
12 *894:inl_ctrl[1] *894:mux1sel[0] 4.11979e-05
13 *26:17 *894:mux1sel[0] 0.00551417
14 *118:57 *777:9 0.000508028
15 *118:75 *777:9 0
16 *652:29 *777:9 1.41437e-05
17 *656:23 *777:9 0
18 *692:17 *777:9 0.00247999
19 *694:17 *777:9 0.0319008
20 *757:33 *894:mux1sel[0] 1.58513e-05
21 *770:25 *894:mux1sel[0] 0.000881712
22 *773:40 *777:9 0.00197829
23 *773:42 *777:9 0.0121054
24 *776:13 *777:9 0.0305806
25 *776:31 *777:9 0.0383942
*RES
1 *897:analog_ctrl[90] *777:7 8.07093 
2 *777:7 *777:9 1095.31 
3 *777:9 *777:11 8 
4 *777:11 *777:13 171.145 
5 *777:13 *894:mux1sel[0] 46.3026 
*END

*D_NET *778 0.389854
*CONN
*I *894:mux1sel[1] I *D CF_BGR
*I *897:analog_ctrl[91] O *D soc_sys
*CAP
1 *894:mux1sel[1] 0.000187774
2 *897:analog_ctrl[91] 0.00561088
3 *778:13 0.0209686
4 *778:11 0.0207808
5 *778:9 0.04033
6 *778:7 0.0459409
7 *894:mux1sel[1] *894:dft_sel 0.00039523
8 *778:7 *779:7 0.000765599
9 *778:7 *780:7 0.000136762
10 *778:9 *780:9 0
11 *778:9 *828:17 0.00140167
12 *778:13 *780:13 0.0550027
13 *40:19 *778:7 0.00485452
14 *648:33 *778:7 0.000844193
15 *721:9 *778:9 0.0260518
16 *724:9 *778:9 0.0664946
17 *725:9 *778:9 0.00209502
18 *758:17 *778:7 1.81572e-05
19 *758:29 *778:13 0.00190208
20 *763:13 *778:13 1.36509e-05
21 *764:13 *778:13 0.0959796
22 *775:7 *778:7 7.94202e-05
*RES
1 *897:analog_ctrl[91] *778:7 23.484 
2 *778:7 *778:9 218.254 
3 *778:9 *778:11 8 
4 *778:11 *778:13 189.521 
5 *778:13 *894:mux1sel[1] 13.4168 
*END

*D_NET *779 0.385882
*CONN
*I *894:mux2sel I *D CF_BGR
*I *897:analog_ctrl[92] O *D soc_sys
*CAP
1 *894:mux2sel 0.000197317
2 *897:analog_ctrl[92] 0.00105027
3 *779:17 0.0430375
4 *779:15 0.0428402
5 *779:13 0.0204343
6 *779:11 0.0204343
7 *779:9 0.00600719
8 *779:7 0.00705746
9 *779:7 *780:7 6.64381e-05
10 *779:9 *826:21 0.00846671
11 *894:CurrAbsTrim[5] *894:mux2sel 0.00013436
12 *894:trimCurr[5] *894:mux2sel 2.79505e-05
13 *894:trimCurr[1] *894:mux2sel 0.000272112
14 *894:CurrAbsTrim[4] *894:mux2sel 0.000107452
15 *894:mux1sel[0] *894:mux2sel 0.000158439
16 *70:16 *779:17 0
17 *72:13 *779:13 0.0932104
18 *670:9 *779:9 0
19 *676:17 *779:9 0.0172526
20 *745:9 *779:9 0.00764904
21 *758:17 *779:7 0.00147074
22 *762:15 *779:9 0.000150324
23 *767:17 *779:17 0.018099
24 *770:9 *779:9 0.000148407
25 *770:21 *779:13 0.0917791
26 *771:9 *779:9 0.000806261
27 *772:9 *779:9 0.00425907
28 *773:50 *779:17 0
29 *778:7 *779:7 0.000765599
*RES
1 *897:analog_ctrl[92] *779:7 11.3339 
2 *779:7 *779:9 307.214 
3 *779:9 *779:11 8 
4 *779:11 *779:13 178.015 
5 *779:13 *779:15 8 
6 *779:15 *779:17 158.596 
7 *779:17 *894:mux2sel 19.3143 
*END

*D_NET *780 0.433551
*CONN
*I *894:dft_sel I *D CF_BGR
*I *897:analog_ctrl[93] O *D soc_sys
*CAP
1 *894:dft_sel 0.000246889
2 *897:analog_ctrl[93] 0.00458278
3 *780:13 0.0212926
4 *780:11 0.0210457
5 *780:9 0.0297621
6 *780:7 0.0343448
7 *894:dft_sel *894:pd 2.29538e-05
8 *780:7 *781:7 0.000749551
9 *780:9 *807:9 0.0013585
10 *780:9 *886:9 0.00114482
11 *894:mux1sel[1] *894:dft_sel 0.00039523
12 *40:19 *780:7 0.000559715
13 *67:217 *780:9 0.00122579
14 *725:9 *780:9 0.0668249
15 *741:23 *780:7 0.00366608
16 *756:9 *780:9 0.0908184
17 *758:17 *780:7 0.00443202
18 *763:13 *780:13 0.0958502
19 *766:13 *780:13 2.17681e-05
20 *778:7 *780:7 0.000136762
21 *778:9 *780:9 0
22 *778:13 *780:13 0.0550027
23 *779:7 *780:7 6.64381e-05
*RES
1 *897:analog_ctrl[93] *780:7 22.6253 
2 *780:7 *780:9 218.001 
3 *780:9 *780:11 8 
4 *780:11 *780:13 188.576 
5 *780:13 *894:dft_sel 14.7321 
*END

*D_NET *781 0.388637
*CONN
*I *894:pd I *D CF_BGR
*I *897:analog_ctrl[94] O *D soc_sys
*CAP
1 *894:pd 0.000733324
2 *897:analog_ctrl[94] 0.00365021
3 *781:21 0.024521
4 *781:19 0.0237877
5 *781:17 0.0494846
6 *781:15 0.050273
7 *781:9 0.00227255
8 *781:7 0.00513436
9 *781:7 *782:7 0.000692503
10 *781:7 *783:15 0.00032833
11 *781:7 *784:7 0
12 *781:9 *784:9 0.00390355
13 *781:15 *855:7 0.000454882
14 *781:15 *870:11 0.00116666
15 *781:21 *783:21 0.0727422
16 *894:CurrAbsTrim[0] *894:pd 4.53098e-05
17 *894:dft_sel *894:pd 2.29538e-05
18 *894:inl_ctrl[0] *781:21 0.0127089
19 *658:21 *781:17 0.000150745
20 *675:9 *781:17 0.0037351
21 *678:9 *781:9 0.00068636
22 *697:9 *781:17 0.0241741
23 *707:9 *781:9 0.00015894
24 *718:9 *781:17 0.0170345
25 *741:23 *781:7 0.00366317
26 *741:25 *781:17 0.00430185
27 *746:9 *781:9 0
28 *755:13 *781:21 0.0741078
29 *756:13 *894:pd 1.22142e-05
30 *758:23 *781:15 0.000126526
31 *760:37 *781:21 0.00197095
32 *772:17 *781:17 0.00584301
33 *780:7 *781:7 0.000749551
*RES
1 *897:analog_ctrl[94] *781:7 18.6325 
2 *781:7 *781:9 55.0793 
3 *781:9 *781:15 18.4173 
4 *781:15 *781:17 205.434 
5 *781:17 *781:19 8 
6 *781:19 *781:21 182.093 
7 *781:21 *894:pd 27.1026 
*END

*D_NET *782 0.323606
*CONN
*I *894:pd_ibg I *D CF_BGR
*I *897:analog_ctrl[95] O *D soc_sys
*CAP
1 *894:pd_ibg 0.000231415
2 *897:analog_ctrl[95] 0.000938154
3 *782:21 0.0158602
4 *782:19 0.0156288
5 *782:17 0.0382216
6 *782:15 0.0382216
7 *782:13 0.00346641
8 *782:11 0.00349212
9 *782:9 0.01752
10 *782:7 0.0184324
11 *782:7 *783:15 0.000689285
12 *894:mux1sel[0] *894:pd_ibg 0.000580444
13 *670:9 *782:13 0
14 *715:15 *782:17 0
15 *730:13 *782:17 0
16 *733:9 *782:9 0.0241909
17 *745:9 *782:9 0.00111314
18 *749:13 *782:17 0.0714401
19 *750:13 *782:17 0
20 *757:33 *782:21 0
21 *767:9 *782:9 0.0611353
22 *767:9 *782:13 0.00402968
23 *767:17 *782:21 0
24 *771:9 *782:9 0.00169996
25 *775:9 *782:9 0.005125
26 *775:9 *782:13 0.000752848
27 *775:19 *782:13 0.00014378
28 *775:29 *782:17 0
29 *781:7 *782:7 0.000692503
*RES
1 *897:analog_ctrl[95] *782:7 10.9045 
2 *782:7 *782:9 784.636 
3 *782:9 *782:11 0.621429 
4 *782:11 *782:13 103.758 
5 *782:13 *782:15 8 
6 *782:15 *782:17 175.954 
7 *782:17 *782:19 8 
8 *782:19 *782:21 53.2411 
9 *782:21 *894:pd_ibg 18.448 
*END

*D_NET *783 0.321832
*CONN
*I *894:finetune I *D CF_BGR
*I *897:analog_ctrl[96] O *D soc_sys
*CAP
1 *894:finetune 0.00074049
2 *897:analog_ctrl[96] 0.00637722
3 *783:21 0.0289788
4 *783:19 0.0282383
5 *783:17 0.036916
6 *783:15 0.0432932
7 *783:15 *897:sram_dat_i[2] 0.0011633
8 *783:15 *784:7 0.00143436
9 *783:15 *811:7 1.67032e-05
10 *783:15 *829:21 0.000242841
11 *783:15 *856:7 0.00120477
12 *783:17 *853:13 0
13 *783:17 *890:9 0
14 *44:13 *894:finetune 0.000196962
15 *650:25 *783:15 0.00342972
16 *652:33 *783:15 0.00228194
17 *674:9 *783:17 0
18 *678:9 *783:17 0
19 *730:9 *783:17 0.0645004
20 *736:9 *783:15 0.000406075
21 *755:9 *783:17 0.0277777
22 *755:13 *783:21 0.00082622
23 *758:29 *894:finetune 9.03832e-06
24 *762:21 *894:finetune 3.8199e-05
25 *781:7 *783:15 0.00032833
26 *781:21 *783:21 0.0727422
27 *782:7 *783:15 0.000689285
*RES
1 *897:analog_ctrl[96] *783:15 46.0976 
2 *783:15 *783:17 1133.34 
3 *783:17 *783:19 8 
4 *783:19 *783:21 141.779 
5 *783:21 *894:finetune 26.5595 
*END

*D_NET *784 0.365109
*CONN
*I *894:en_startb I *D CF_BGR
*I *897:analog_ctrl[97] O *D soc_sys
*CAP
1 *894:en_startb 0.000273432
2 *897:analog_ctrl[97] 0.00467094
3 *784:25 0.0331582
4 *784:23 0.0615734
5 *784:13 0.052262
6 *784:11 0.0235733
7 *784:9 0.0223192
8 *784:7 0.0269901
9 *894:mux1sel[0] *784:25 0
10 *20:40 *784:23 0
11 *77:17 *784:25 0.0301229
12 *678:9 *784:9 0
13 *707:9 *784:9 0.0582504
14 *760:33 *784:23 0
15 *772:27 *784:13 0.0054508
16 *772:27 *784:23 0.0411263
17 *781:7 *784:7 0
18 *781:9 *784:9 0.00390355
19 *783:15 *784:7 0.00143436
*RES
1 *897:analog_ctrl[97] *784:7 18.5467 
2 *784:7 *784:9 753.731 
3 *784:9 *784:11 8 
4 *784:11 *784:13 76.8637 
5 *784:13 *784:23 23.429 
6 *784:23 *784:25 131.178 
7 *784:25 *894:en_startb 32.5226 
*END

*D_NET *787 0.22689
*CONN
*I *893:pd_ana I *D CF_ADC_SAR12_sar_refs
*I *892:pd_ana I *D CF_ADC_SAR12
*I *897:analog_ctrl[9] O *D soc_sys
*CAP
1 *893:pd_ana 0.000112573
2 *892:pd_ana 0.00777586
3 *897:analog_ctrl[9] 0.000185929
4 *787:47 0.00669645
5 *787:23 0.0330623
6 *787:21 0.0252865
7 *787:19 0.014003
8 *787:17 0.0152419
9 *787:13 0.00782271
10 *787:11 0.0126104
11 *787:9 0.0127963
12 *892:vssa *892:pd_ana 0
13 *892:dft_inc[3] *892:pd_ana 0
14 *893:pd *893:pd_ana 5.35213e-05
15 *893:hiz *787:47 0.0101175
16 *893:sw_start *893:pd_ana 0
17 *118:57 *787:11 0.00103848
18 *648:37 *787:11 0.00892682
19 *676:7 *787:9 4.72403e-05
20 *692:15 *787:17 6.1038e-05
21 *692:15 *787:47 0.00271931
22 *692:17 *787:11 5.747e-05
23 *773:40 *787:11 0.00369999
24 *773:42 *787:11 0.0048659
25 *776:11 *787:9 0.000202982
26 *776:11 *787:11 0
27 *776:13 *787:11 0.0046552
28 *776:21 *787:47 0.0243213
29 *777:9 *787:11 0.0305294
*RES
1 *897:analog_ctrl[9] *787:9 12.1132 
2 *787:9 *787:11 503.709 
3 *787:11 *787:13 8 
4 *787:13 *787:17 3.88453 
5 *787:17 *787:19 47.1109 
6 *787:19 *787:21 8 
7 *787:21 *787:23 84.2128 
8 *787:23 *892:pd_ana 32.2436 
9 *787:13 *787:47 45.8229 
10 *787:47 *893:pd_ana 10.6204 
*END

*D_NET *788 0.103308
*CONN
*I *897:sram_ack_i I *D soc_sys
*I *898:wbs_ack_o O *D CF_SRAM_1024x32_wb_wrapper
*CAP
1 *897:sram_ack_i 0.00189038
2 *898:wbs_ack_o 0.00123358
3 *788:13 0.0070791
4 *788:11 0.00900165
5 *788:7 0.00504651
6 *897:sram_ack_i *821:7 0.00119318
7 *788:7 *898:wbs_cyc_i 0
8 *788:11 *824:19 0.00149827
9 *788:11 *826:19 0.00125671
10 *788:11 *827:9 0.00210965
11 *788:11 *828:9 0.00251399
12 *788:11 *829:19 0.000626261
13 *788:11 *844:11 0.0107765
14 *788:11 *844:15 2.1933e-05
15 *788:11 *848:21 0.00545977
16 *788:11 *855:15 0.0122616
17 *788:11 *861:35 0.00138856
18 *788:13 *792:9 0
19 *788:13 *859:9 0.000588498
20 *788:13 *881:9 0.0210714
21 *898:wb_rst_i *788:7 0
22 *141:13 *788:11 5.81906e-05
23 *143:39 *788:11 0.00188198
24 *650:25 *788:13 0.000838511
25 *650:35 *788:13 1.65299e-05
26 *656:25 *788:13 0.00381357
27 *690:7 *897:sram_ack_i 0.00119318
28 *711:9 *788:13 0.0101045
29 *736:9 *788:13 0.000383604
*RES
1 *898:wbs_ack_o *788:7 24.2711 
2 *788:7 *788:11 40.8571 
3 *788:11 *788:13 288.198 
4 *788:13 *897:sram_ack_i 13.4805 
*END

*D_NET *789 0.098514
*CONN
*I *898:wbs_adr_i[0] I *D CF_SRAM_1024x32_wb_wrapper
*I *897:sram_adr_o[0] O *D soc_sys
*CAP
1 *898:wbs_adr_i[0] 0.000787171
2 *897:sram_adr_o[0] 0.000218658
3 *789:13 0.00524595
4 *789:9 0.0112793
5 *789:7 0.00703915
6 *898:wbs_adr_i[0] *898:wbs_dat_i[0] 0
7 *898:wbs_adr_i[0] *898:wbs_we_i 0
8 *789:7 *897:sram_dat_i[0] 0.000187081
9 *789:7 *891:7 0.000187081
10 *789:13 *898:wbs_adr_i[10] 0.00383017
11 *789:13 *791:19 2.13775e-05
12 *789:13 *792:19 0.000866508
13 *789:13 *795:19 0.00441683
14 *789:13 *797:19 0.00197683
15 *789:13 *822:9 0.0148368
16 *789:13 *825:19 0.000212937
17 *789:13 *833:9 0.000188196
18 *789:13 *849:11 0.0123282
19 *789:13 *870:19 5.17394e-05
20 *104:26 *789:9 0.0212196
21 *112:37 *789:9 4.15283e-06
22 *113:13 *789:13 0.000298633
23 *141:13 *789:13 0.000763756
24 *142:18 *789:13 0
25 *676:9 *789:9 0.0125539
26 *754:9 *789:9 0
*RES
1 *897:sram_adr_o[0] *789:7 8.75787 
2 *789:7 *789:9 288.198 
3 *789:9 *789:13 47.2971 
4 *789:13 *898:wbs_adr_i[0] 18.6368 
*END

*D_NET *790 0.130234
*CONN
*I *898:wbs_adr_i[10] I *D CF_SRAM_1024x32_wb_wrapper
*I *897:sram_adr_o[10] O *D soc_sys
*CAP
1 *898:wbs_adr_i[10] 0.0181435
2 *897:sram_adr_o[10] 0.0015284
3 *790:9 0.0382295
4 *790:7 0.0216144
5 *898:wbs_adr_i[10] *898:wbs_dat_i[10] 0.000123963
6 *898:wbs_adr_i[10] *898:wbs_dat_i[11] 0.000364303
7 *898:wbs_adr_i[10] *792:19 0.00126309
8 *898:wbs_adr_i[10] *795:19 0.00102404
9 *898:wbs_adr_i[10] *824:19 0.0191118
10 *898:wbs_adr_i[10] *826:19 0.000145641
11 *898:wbs_adr_i[10] *839:12 0.000236634
12 *898:wbs_adr_i[10] *849:11 0.00395714
13 *790:7 *897:sram_dat_i[10] 0.000977104
14 *790:7 *890:7 0.00105897
15 *790:9 *791:9 0.00146223
16 *790:9 *792:9 0.000948155
17 *790:9 *794:9 0.000948155
18 *790:9 *795:9 0.0016374
19 *790:9 *808:9 0.00167684
20 *107:21 *898:wbs_adr_i[10] 0
21 *141:13 *898:wbs_adr_i[10] 0.000255057
22 *650:25 *790:9 0
23 *665:9 *790:9 0.000595171
24 *672:9 *790:9 0
25 *736:9 *790:9 0
26 *739:9 *790:9 0.0108203
27 *762:17 *790:9 0.000282353
28 *789:13 *898:wbs_adr_i[10] 0.00383017
*RES
1 *897:sram_adr_o[10] *790:7 12.4931 
2 *790:7 *790:9 60.8571 
3 *790:9 *898:wbs_adr_i[10] 26.5261 
*END

*D_NET *791 0.112687
*CONN
*I *898:wbs_adr_i[11] I *D CF_SRAM_1024x32_wb_wrapper
*I *897:sram_adr_o[11] O *D soc_sys
*CAP
1 *898:wbs_adr_i[11] 0.000657098
2 *897:sram_adr_o[11] 0.00150498
3 *791:21 0.00713457
4 *791:19 0.00918534
5 *791:9 0.0106558
6 *791:7 0.00945288
7 *898:wbs_adr_i[11] *823:7 0
8 *898:wbs_adr_i[11] *824:19 0
9 *791:7 *897:sram_dat_i[11] 0.00095205
10 *791:7 *860:7 0.00095205
11 *791:9 *797:9 0.000193583
12 *791:9 *808:9 0.025632
13 *791:19 *794:19 0.00412411
14 *791:19 *797:19 0.00167294
15 *791:19 *815:15 0.00244017
16 *791:19 *817:13 1.71433e-05
17 *791:19 *833:9 0.00341249
18 *791:21 *792:21 0.0196632
19 *791:21 *822:9 0.00250398
20 *141:21 *791:21 0
21 *142:18 *791:19 0.00012386
22 *647:25 *791:9 0
23 *671:9 *791:9 0.00630896
24 *687:9 *791:9 0
25 *708:9 *791:9 0.000448151
26 *723:9 *791:9 0.00353168
27 *739:9 *791:9 0.000635989
28 *789:13 *791:19 2.13775e-05
29 *790:9 *791:9 0.00146223
*RES
1 *897:sram_adr_o[11] *791:7 12.3643 
2 *791:7 *791:9 337.498 
3 *791:9 *791:19 46.7047 
4 *791:19 *791:21 210.726 
5 *791:21 *898:wbs_adr_i[11] 24.7564 
*END

*D_NET *792 0.11581
*CONN
*I *898:wbs_adr_i[12] I *D CF_SRAM_1024x32_wb_wrapper
*I *897:sram_adr_o[12] O *D soc_sys
*CAP
1 *898:wbs_adr_i[12] 0.000629341
2 *897:sram_adr_o[12] 0.00155067
3 *792:21 0.00391242
4 *792:19 0.00488071
5 *792:9 0.00914993
6 *792:7 0.00910297
7 *898:wbs_adr_i[12] *898:wbs_dat_i[12] 0
8 *898:wbs_adr_i[12] *824:19 0
9 *792:7 *897:sram_dat_i[12] 0.00122338
10 *792:7 *861:7 0.00122338
11 *792:9 *794:9 0.0133367
12 *792:9 *795:9 0
13 *792:19 *795:19 0.00423172
14 *792:19 *825:19 0.00197748
15 *792:19 *827:19 0.000960919
16 *792:19 *836:15 0.000204429
17 *792:19 *853:9 0.000237028
18 *792:19 *855:9 0
19 *792:19 *865:19 3.07752e-05
20 *792:21 *793:17 0.0212446
21 *792:21 *822:9 0.00216887
22 *898:wbs_adr_i[10] *792:19 0.00126309
23 *141:13 *792:19 0.00246308
24 *141:21 *792:21 0
25 *656:25 *792:9 0.0117843
26 *673:17 *792:9 0.00275668
27 *788:13 *792:9 0
28 *789:13 *792:19 0.000866508
29 *790:9 *792:9 0.000948155
30 *791:21 *792:21 0.0196632
*RES
1 *897:sram_adr_o[12] *792:7 13.0512 
2 *792:7 *792:9 345.949 
3 *792:9 *792:19 44.9189 
4 *792:19 *792:21 227.878 
5 *792:21 *898:wbs_adr_i[12] 24.4043 
*END

*D_NET *793 0.127925
*CONN
*I *898:wbs_adr_i[13] I *D CF_SRAM_1024x32_wb_wrapper
*I *897:sram_adr_o[13] O *D soc_sys
*CAP
1 *898:wbs_adr_i[13] 0.00060763
2 *897:sram_adr_o[13] 0.00545334
3 *793:17 0.00387873
4 *793:15 0.0032711
5 *793:13 0.00144451
6 *793:11 0.00147173
7 *793:9 0.00409154
8 *793:7 0.00951766
9 *898:wbs_adr_i[13] *898:wbs_dat_i[13] 0
10 *898:wbs_adr_i[13] *825:7 0
11 *793:7 *897:sram_dat_i[13] 0.000778474
12 *793:7 *862:7 0.00320593
13 *793:7 *863:7 0.00129439
14 *793:7 *864:7 0
15 *793:9 *828:17 0
16 *793:9 *836:17 0.00474147
17 *793:9 *847:13 0.0180671
18 *793:13 *819:19 0.00013924
19 *793:13 *836:15 0.000299691
20 *793:13 *836:17 0.00512339
21 *793:13 *847:13 0.00283354
22 *793:13 *855:9 4.81014e-05
23 *793:17 *794:21 0.000117272
24 *793:17 *796:13 0.0217252
25 *793:17 *870:19 0.00264418
26 *141:21 *793:17 0
27 *732:9 *793:9 0.00321406
28 *742:9 *793:9 0.0123078
29 *770:15 *793:7 0.000404166
30 *792:21 *793:17 0.0212446
*RES
1 *897:sram_adr_o[13] *793:7 23.9563 
2 *793:7 *793:9 271.771 
3 *793:9 *793:11 0.621429 
4 *793:11 *793:13 75.5554 
5 *793:13 *793:15 15 
6 *793:15 *793:17 235.501 
7 *793:17 *898:wbs_adr_i[13] 24.0521 
*END

*D_NET *794 0.11723
*CONN
*I *898:wbs_adr_i[14] I *D CF_SRAM_1024x32_wb_wrapper
*I *897:sram_adr_o[14] O *D soc_sys
*CAP
1 *898:wbs_adr_i[14] 0.000544741
2 *897:sram_adr_o[14] 0.00153261
3 *794:21 0.00452133
4 *794:19 0.00533534
5 *794:9 0.00893575
6 *794:7 0.0091096
7 *898:wbs_adr_i[14] *898:wbs_dat_i[14] 0
8 *898:wbs_adr_i[14] *826:7 0
9 *794:7 *897:sram_dat_i[14] 0.00108019
10 *794:7 *863:7 0.00118611
11 *794:9 *795:9 0.0136557
12 *794:19 *795:19 3.39192e-05
13 *794:19 *817:13 0.000135401
14 *794:19 *822:13 9.69591e-05
15 *794:21 *795:21 0.0241516
16 *794:21 *796:13 0.022384
17 *794:21 *797:21 2.02872e-05
18 *794:21 *833:9 0.00264418
19 *65:21 *794:19 0.00030938
20 *142:18 *794:19 0.00281658
21 *673:17 *794:9 0.000210358
22 *790:9 *794:9 0.000948155
23 *791:19 *794:19 0.00412411
24 *792:9 *794:9 0.0133367
25 *793:17 *794:21 0.000117272
*RES
1 *897:sram_adr_o[14] *794:7 12.8795 
2 *794:7 *794:9 349.471 
3 *794:9 *794:19 40.4191 
4 *794:19 *794:21 260.275 
5 *794:21 *898:wbs_adr_i[14] 23.3479 
*END

*D_NET *795 0.122932
*CONN
*I *898:wbs_adr_i[15] I *D CF_SRAM_1024x32_wb_wrapper
*I *897:sram_adr_o[15] O *D soc_sys
*CAP
1 *898:wbs_adr_i[15] 0.000519699
2 *897:sram_adr_o[15] 0.00154733
3 *795:21 0.00429637
4 *795:19 0.00493642
5 *795:9 0.00904916
6 *795:7 0.00943674
7 *898:wbs_adr_i[15] *898:wbs_dat_i[15] 0
8 *898:wbs_adr_i[15] *827:7 0
9 *795:7 *897:sram_dat_i[15] 0.00103884
10 *795:7 *864:7 0.00103884
11 *795:9 *797:9 0.0134821
12 *795:19 *822:13 5.21472e-05
13 *795:19 *885:9 0
14 *795:21 *796:13 0.000365746
15 *795:21 *797:21 0.0248104
16 *795:21 *833:9 0.00229031
17 *898:wbs_adr_i[10] *795:19 0.00102404
18 *141:13 *795:19 0.000103479
19 *673:17 *795:9 0
20 *761:17 *795:9 0.000812878
21 *789:13 *795:19 0.00441683
22 *790:9 *795:9 0.0016374
23 *792:9 *795:9 0
24 *792:19 *795:19 0.00423172
25 *794:9 *795:9 0.0136557
26 *794:19 *795:19 3.39192e-05
27 *794:21 *795:21 0.0241516
*RES
1 *897:sram_adr_o[15] *795:7 12.7077 
2 *795:7 *795:9 357.922 
3 *795:9 *795:19 42.7896 
4 *795:19 *795:21 266.945 
5 *795:21 *898:wbs_adr_i[15] 22.9957 
*END

*D_NET *796 0.139174
*CONN
*I *898:wbs_adr_i[16] I *D CF_SRAM_1024x32_wb_wrapper
*I *897:sram_adr_o[16] O *D soc_sys
*CAP
1 *898:wbs_adr_i[16] 0.000548719
2 *897:sram_adr_o[16] 0.00593831
3 *796:13 0.00441364
4 *796:11 0.00386492
5 *796:9 0.00454491
6 *796:7 0.0104832
7 *898:wbs_adr_i[16] *898:wbs_dat_i[16] 0
8 *898:wbs_adr_i[16] *828:7 0
9 *796:7 *897:sram_dat_i[15] 5.48735e-05
10 *796:7 *897:sram_dat_i[16] 0.00149306
11 *796:7 *897:sram_dat_i[17] 0
12 *796:7 *864:7 0
13 *796:7 *865:7 0.0017537
14 *796:7 *866:7 0.000385929
15 *796:7 *867:7 0
16 *796:9 *798:9 0.0277363
17 *796:9 *804:9 0.000136857
18 *796:9 *806:13 0.00134624
19 *796:9 *832:17 0.000731421
20 *796:9 *836:15 2.36519e-05
21 *796:9 *864:9 0.0269553
22 *796:9 *864:23 2.03556e-05
23 *796:13 *797:21 0.000230046
24 *796:13 *870:19 0.00229031
25 *67:223 *796:7 0.000986
26 *683:9 *796:9 0
27 *732:9 *796:9 0.000761119
28 *793:17 *796:13 0.0217252
29 *794:21 *796:13 0.022384
30 *795:21 *796:13 0.000365746
*RES
1 *897:sram_adr_o[16] *796:7 24.4715 
2 *796:7 *796:9 359.507 
3 *796:9 *796:11 15 
4 *796:11 *796:13 254.558 
5 *796:13 *898:wbs_adr_i[16] 23.7 
*END

*D_NET *797 0.129446
*CONN
*I *898:wbs_adr_i[17] I *D CF_SRAM_1024x32_wb_wrapper
*I *897:sram_adr_o[17] O *D soc_sys
*CAP
1 *898:wbs_adr_i[17] 0.000500753
2 *897:sram_adr_o[17] 0.00139149
3 *797:21 0.00524178
4 *797:19 0.00615569
5 *797:9 0.00820705
6 *797:7 0.00818388
7 *898:wbs_adr_i[17] *898:wbs_dat_i[17] 0
8 *898:wbs_adr_i[17] *829:7 0
9 *797:7 *897:sram_dat_i[17] 0.00109902
10 *797:7 *866:7 0.00109902
11 *797:9 *808:9 0.0275543
12 *797:19 *833:9 0.000159489
13 *797:19 *844:17 5.69188e-05
14 *797:21 *802:13 0.025047
15 *797:21 *807:13 3.52039e-05
16 *797:21 *815:15 0.00036432
17 *113:21 *797:21 0.000133307
18 *739:9 *797:9 0.000381171
19 *761:17 *797:9 0.00144905
20 *789:13 *797:19 0.00197683
21 *791:9 *797:9 0.000193583
22 *791:19 *797:19 0.00167294
23 *794:21 *797:21 2.02872e-05
24 *795:9 *797:9 0.0134821
25 *795:21 *797:21 0.0248104
26 *796:13 *797:21 0.000230046
*RES
1 *897:sram_adr_o[17] *797:7 12.536 
2 *797:7 *797:9 364.261 
3 *797:9 *797:19 39.8267 
4 *797:19 *797:21 288.861 
5 *797:21 *898:wbs_adr_i[17] 22.6436 
*END

*D_NET *798 0.140046
*CONN
*I *898:wbs_adr_i[18] I *D CF_SRAM_1024x32_wb_wrapper
*I *897:sram_adr_o[18] O *D soc_sys
*CAP
1 *898:wbs_adr_i[18] 0.000155779
2 *897:sram_adr_o[18] 0.00504384
3 *798:13 0.00502505
4 *798:11 0.00486927
5 *798:9 0.00434815
6 *798:7 0.00939199
7 *798:7 *897:sram_dat_i[18] 0.0037243
8 *798:7 *799:5 0
9 *798:7 *867:7 0.0036859
10 *798:9 *804:9 0.0284011
11 *798:9 *806:13 0.00134624
12 *798:13 *898:wbs_adr_i[2] 0.00236377
13 *798:13 *808:21 0.0244674
14 *798:13 *819:21 6.37748e-05
15 *798:13 *820:21 0.0185217
16 *798:13 *838:11 0.000140203
17 *142:26 *798:13 0
18 *732:9 *798:9 0.000761119
19 *796:9 *798:9 0.0277363
*RES
1 *897:sram_adr_o[18] *798:7 24.3856 
2 *798:7 *798:9 361.267 
3 *798:9 *798:11 15 
4 *798:11 *798:13 269.327 
5 *798:13 *898:wbs_adr_i[18] 17.0093 
*END

*D_NET *799 0.130324
*CONN
*I *898:wbs_adr_i[19] I *D CF_SRAM_1024x32_wb_wrapper
*I *897:sram_adr_o[19] O *D soc_sys
*CAP
1 *898:wbs_adr_i[19] 0.00260778
2 *897:sram_adr_o[19] 0.0223659
3 *799:9 0.0135358
4 *799:7 0.010928
5 *799:5 0.0223659
6 *898:wbs_adr_i[19] *898:wbs_adr_i[22] 0.00135197
7 *898:wbs_adr_i[19] *898:wbs_adr_i[24] 0.00689313
8 *898:wbs_adr_i[19] *898:wbs_dat_i[23] 9.83137e-05
9 *898:wbs_adr_i[19] *898:wbs_dat_i[26] 0.000767905
10 *898:wbs_adr_i[19] *898:wbs_dat_i[28] 0.00436827
11 *898:wbs_adr_i[19] *831:7 0
12 *898:wbs_adr_i[19] *834:11 0.000421454
13 *898:wbs_adr_i[19] *835:11 0.00182825
14 *898:wbs_adr_i[19] *838:11 0.00399025
15 *898:wbs_adr_i[19] *841:29 0.0007137
16 *898:wbs_adr_i[19] *842:9 0.000470691
17 *898:wbs_adr_i[19] *880:29 0.000407698
18 *898:wbs_adr_i[19] *883:21 0.00010722
19 *799:5 *897:sram_dat_i[18] 0.000729682
20 *799:5 *897:sram_dat_i[19] 0.00369144
21 *799:5 *897:sram_dat_i[20] 0
22 *799:5 *801:5 0
23 *799:5 *801:15 0.0122492
24 *799:5 *868:7 0.00208411
25 *799:9 *803:9 0
26 *799:9 *843:16 0.00327022
27 *799:9 *879:9 9.30443e-06
28 *799:9 *882:9 0.0150472
29 *799:9 *882:17 2.05503e-05
30 *798:7 *799:5 0
*RES
1 *897:sram_adr_o[19] *799:5 86.1093 
2 *799:5 *799:7 8 
3 *799:7 *799:9 366.374 
4 *799:9 *898:wbs_adr_i[19] 38.8667 
*END

*D_NET *800 0.0833934
*CONN
*I *898:wbs_adr_i[1] I *D CF_SRAM_1024x32_wb_wrapper
*I *897:sram_adr_o[1] O *D soc_sys
*CAP
1 *898:wbs_adr_i[1] 0.00305599
2 *897:sram_adr_o[1] 0.00520323
3 *800:9 0.0107142
4 *800:7 0.0128615
5 *898:wbs_adr_i[1] *898:wbs_dat_i[1] 0
6 *898:wbs_adr_i[1] *817:13 0.0143844
7 *898:wbs_adr_i[1] *818:13 0.000350006
8 *898:wbs_adr_i[1] *822:9 0
9 *898:wbs_adr_i[1] *847:9 0.0136535
10 *800:7 *897:sram_dat_i[0] 0
11 *800:7 *897:sram_dat_i[1] 0.00130151
12 *800:7 *854:7 0.00235722
13 *800:7 *855:7 0
14 *800:7 *870:11 0.000180265
15 *800:9 *814:9 0.011625
16 *800:9 *886:9 8.73309e-05
17 *800:9 *889:9 0
18 *713:9 *800:9 0.00321078
19 *725:9 *800:9 0.00034829
20 *756:9 *800:9 0.00129517
21 *772:15 *800:7 0.00276497
*RES
1 *897:sram_adr_o[1] *800:7 22.4107 
2 *800:7 *800:9 288.198 
3 *800:9 *898:wbs_adr_i[1] 48.3641 
*END

*D_NET *801 0.0951132
*CONN
*I *898:wbs_adr_i[20] I *D CF_SRAM_1024x32_wb_wrapper
*I *897:sram_adr_o[20] O *D soc_sys
*CAP
1 *898:wbs_adr_i[20] 2.45475e-05
2 *897:sram_adr_o[20] 0.0114439
3 *801:17 0.0185523
4 *801:15 0.0232035
5 *801:5 0.0161197
6 *898:wbs_adr_i[20] *839:12 2.03202e-05
7 *801:5 *897:sram_dat_i[19] 0.000952474
8 *801:5 *897:sram_dat_i[20] 0.0112099
9 *801:5 *869:7 0.0013276
10 *801:17 *810:9 0
11 *801:17 *878:17 0
12 *107:21 *898:wbs_adr_i[20] 9.75158e-06
13 *799:5 *801:5 0
14 *799:5 *801:15 0.0122492
*RES
1 *897:sram_adr_o[20] *801:5 45.0221 
2 *801:5 *801:15 47.4976 
3 *801:15 *801:17 65.0459 
4 *801:17 *898:wbs_adr_i[20] 16.0989 
*END

*D_NET *802 0.154334
*CONN
*I *898:wbs_adr_i[21] I *D CF_SRAM_1024x32_wb_wrapper
*I *897:sram_adr_o[21] O *D soc_sys
*CAP
1 *898:wbs_adr_i[21] 0.000514898
2 *897:sram_adr_o[21] 0.00472013
3 *802:13 0.00520036
4 *802:11 0.00468546
5 *802:9 0.00500778
6 *802:7 0.00972791
7 *898:wbs_adr_i[21] *898:wbs_dat_i[20] 0
8 *898:wbs_adr_i[21] *898:wbs_dat_i[21] 0
9 *802:7 *897:sram_dat_i[21] 0.000551026
10 *802:7 *803:5 0
11 *802:7 *835:17 0.00645977
12 *802:7 *871:7 0.000537543
13 *802:7 *872:7 0.000538238
14 *802:9 *831:13 0.0288302
15 *802:9 *863:19 0.000553864
16 *802:9 *867:9 0.0268375
17 *802:9 *867:13 0.000622099
18 *802:13 *804:13 0.0270949
19 *802:13 *806:21 0.000185948
20 *802:13 *807:13 8.63899e-05
21 *802:13 *815:15 0.00278613
22 *690:9 *802:9 0.000530353
23 *721:9 *802:9 0.00381617
24 *797:21 *802:13 0.025047
*RES
1 *897:sram_adr_o[21] *802:7 23.0976 
2 *802:7 *802:9 379.227 
3 *802:9 *802:11 15 
4 *802:11 *802:13 297.913 
5 *802:13 *898:wbs_adr_i[21] 22.2914 
*END

*D_NET *803 0.151174
*CONN
*I *898:wbs_adr_i[22] I *D CF_SRAM_1024x32_wb_wrapper
*I *897:sram_adr_o[22] O *D soc_sys
*CAP
1 *898:wbs_adr_i[22] 0.00269845
2 *897:sram_adr_o[22] 0.0182867
3 *803:9 0.0131643
4 *803:7 0.0104658
5 *803:5 0.0182867
6 *898:wbs_adr_i[22] *898:wbs_adr_i[24] 0.00689698
7 *898:wbs_adr_i[22] *898:wbs_dat_i[23] 0.000930506
8 *898:wbs_adr_i[22] *898:wbs_dat_i[27] 0.00253603
9 *898:wbs_adr_i[22] *810:25 0.000110706
10 *898:wbs_adr_i[22] *835:11 0
11 *898:wbs_adr_i[22] *836:7 0
12 *898:wbs_adr_i[22] *845:9 0.000634396
13 *803:5 *897:sram_dat_i[20] 0
14 *803:5 *897:sram_dat_i[22] 0.00398148
15 *803:5 *835:17 0
16 *803:5 *872:7 0.00174512
17 *803:5 *873:5 0.00196527
18 *803:5 *874:13 8.9655e-05
19 *803:5 *875:13 0.0308557
20 *803:9 *805:17 0.0298838
21 *803:9 *843:16 0.00528426
22 *803:9 *882:9 0
23 *898:wbs_adr_i[19] *898:wbs_adr_i[22] 0.00135197
24 *65:13 *898:wbs_adr_i[22] 0.000691145
25 *113:21 *898:wbs_adr_i[22] 0.000610224
26 *142:26 *898:wbs_adr_i[22] 0.000704696
27 *799:9 *803:9 0
28 *802:7 *803:5 0
*RES
1 *897:sram_adr_o[22] *803:5 85.68 
2 *803:5 *803:7 8 
3 *803:7 *803:9 380.459 
4 *803:9 *898:wbs_adr_i[22] 35.5166 
*END

*D_NET *804 0.156749
*CONN
*I *898:wbs_adr_i[23] I *D CF_SRAM_1024x32_wb_wrapper
*I *897:sram_adr_o[23] O *D soc_sys
*CAP
1 *898:wbs_adr_i[23] 0.000508749
2 *897:sram_adr_o[23] 0.00477249
3 *804:13 0.00497318
4 *804:11 0.00446443
5 *804:9 0.00518014
6 *804:7 0.00995264
7 *898:wbs_adr_i[23] *898:wbs_dat_i[23] 0
8 *898:wbs_adr_i[23] *836:7 0
9 *898:wbs_adr_i[23] *837:7 0
10 *804:7 *897:sram_dat_i[23] 0.00364481
11 *804:7 *838:17 0.000233427
12 *804:7 *873:5 0.00401892
13 *804:9 *806:13 0.00164242
14 *804:9 *832:21 0.0285598
15 *804:9 *836:15 0.000586153
16 *804:9 *836:17 0.000505415
17 *804:9 *875:11 0
18 *804:13 *806:21 0.0284177
19 *804:13 *815:15 0.00283447
20 *732:9 *804:9 0.000761119
21 *742:9 *804:9 6.0666e-05
22 *796:9 *804:9 0.000136857
23 *798:9 *804:9 0.0284011
24 *802:13 *804:13 0.0270949
*RES
1 *897:sram_adr_o[23] *804:7 24.2997 
2 *804:7 *804:9 387.326 
3 *804:9 *804:11 15 
4 *804:11 *804:13 305.536 
5 *804:13 *898:wbs_adr_i[23] 21.9393 
*END

*D_NET *805 0.169127
*CONN
*I *898:wbs_adr_i[24] I *D CF_SRAM_1024x32_wb_wrapper
*I *897:sram_adr_o[24] O *D soc_sys
*CAP
1 *898:wbs_adr_i[24] 0.00145937
2 *897:sram_adr_o[24] 0.000822031
3 *805:17 0.0122191
4 *805:15 0.0107598
5 *805:13 0.013713
6 *805:11 0.014535
7 *898:wbs_adr_i[24] *810:29 0.000413375
8 *898:wbs_adr_i[24] *837:7 0
9 *898:wbs_adr_i[24] *838:11 0
10 *805:11 *897:sram_dat_i[23] 9.32797e-05
11 *805:11 *897:sram_dat_i[24] 0.000873874
12 *805:11 *874:11 0.000182796
13 *805:13 *897:sram_dat_i[23] 2.26122e-05
14 *805:13 *838:17 0.0205955
15 *805:13 *873:5 0
16 *805:17 *812:17 0
17 *805:17 *843:16 0.00605985
18 *805:17 *876:9 0
19 *805:17 *882:9 0
20 *898:wbs_adr_i[19] *898:wbs_adr_i[24] 0.00689313
21 *898:wbs_adr_i[22] *898:wbs_adr_i[24] 0.00689698
22 *74:79 *805:11 9.01963e-05
23 *74:79 *805:13 0.0435595
24 *748:9 *805:11 5.40143e-05
25 *803:9 *805:17 0.0298838
*RES
1 *897:sram_adr_o[24] *805:11 19.7712 
2 *805:11 *805:13 83.4325 
3 *805:13 *805:15 8 
4 *805:15 *805:17 386.798 
5 *805:17 *898:wbs_adr_i[24] 32.6158 
*END

*D_NET *806 0.16362
*CONN
*I *898:wbs_adr_i[25] I *D CF_SRAM_1024x32_wb_wrapper
*I *897:sram_adr_o[25] O *D soc_sys
*CAP
1 *898:wbs_adr_i[25] 0.000487061
2 *897:sram_adr_o[25] 0.00475307
3 *806:21 0.00525026
4 *806:19 0.0047632
5 *806:17 0.0033015
6 *806:15 0.0033015
7 *806:13 0.00888213
8 *806:7 0.0136352
9 *898:wbs_adr_i[25] *838:11 0
10 *806:7 *897:sram_dat_i[25] 0.00395607
11 *806:7 *875:11 0.00366492
12 *806:13 *820:9 0.0011334
13 *806:13 *832:21 0.00180827
14 *806:13 *836:17 0.00232662
15 *806:13 *864:9 0.00134624
16 *806:17 *811:9 0.0148852
17 *806:17 *814:19 0.000206437
18 *806:17 *828:15 0
19 *806:17 *828:17 0.00515399
20 *806:17 *855:9 0.00013283
21 *806:21 *898:wbs_dat_i[27] 0.000227312
22 *806:21 *807:13 0.0300929
23 *806:21 *815:15 0.00245513
24 *541:33 *806:17 2.12347e-06
25 *724:9 *806:17 0.000381617
26 *732:9 *806:13 0.0152245
27 *732:9 *806:17 0.000649775
28 *742:7 *806:13 0
29 *742:9 *806:13 0.00265977
30 *796:9 *806:13 0.00134624
31 *798:9 *806:13 0.00134624
32 *802:13 *806:21 0.000185948
33 *804:9 *806:13 0.00164242
34 *804:13 *806:21 0.0284177
*RES
1 *897:sram_adr_o[25] *806:7 23.9992 
2 *806:7 *806:13 44.8013 
3 *806:13 *806:15 8 
4 *806:15 *806:17 194 
5 *806:17 *806:19 15 
6 *806:19 *806:21 323.64 
7 *806:21 *898:wbs_adr_i[25] 21.5871 
*END

*D_NET *807 0.169496
*CONN
*I *898:wbs_adr_i[26] I *D CF_SRAM_1024x32_wb_wrapper
*I *897:sram_adr_o[26] O *D soc_sys
*CAP
1 *898:wbs_adr_i[26] 0.000453312
2 *897:sram_adr_o[26] 0.00324962
3 *807:13 0.00536305
4 *807:11 0.00490974
5 *807:9 0.00584934
6 *807:7 0.00909897
7 *898:wbs_adr_i[26] *898:wbs_dat_i[26] 0
8 *898:wbs_adr_i[26] *840:7 0
9 *807:7 *897:sram_dat_i[26] 0.00016855
10 *807:7 *841:35 0.00705477
11 *807:7 *876:5 0.000193503
12 *807:7 *878:13 0.00701195
13 *807:9 *837:13 0.0303604
14 *807:9 *886:9 0.0245623
15 *807:13 *898:wbs_dat_i[27] 0.000257456
16 *807:13 *818:13 0.00283447
17 *67:217 *807:9 0.00340005
18 *113:21 *807:13 0.0311756
19 *690:9 *807:9 0.000409027
20 *713:9 *807:9 0
21 *721:9 *807:9 0.000483753
22 *725:9 *807:9 0.00108704
23 *780:9 *807:9 0.0013585
24 *797:21 *807:13 3.52039e-05
25 *802:13 *807:13 8.63899e-05
26 *806:21 *807:13 0.0300929
*RES
1 *897:sram_adr_o[26] *807:7 22.7541 
2 *807:7 *807:9 399.299 
3 *807:9 *807:11 15 
4 *807:11 *807:13 335.551 
5 *807:13 *898:wbs_adr_i[26] 21.235 
*END

*D_NET *808 0.166909
*CONN
*I *898:wbs_adr_i[27] I *D CF_SRAM_1024x32_wb_wrapper
*I *897:sram_adr_o[27] O *D soc_sys
*CAP
1 *898:wbs_adr_i[27] 0.000129039
2 *897:sram_adr_o[27] 0.00147413
3 *808:21 0.00545257
4 *808:19 0.00723697
5 *808:9 0.0084454
6 *808:7 0.00800609
7 *898:wbs_adr_i[27] *898:wbs_dat_i[27] 0
8 *898:wbs_adr_i[27] *840:7 0
9 *808:7 *897:sram_dat_i[27] 0.000182025
10 *808:7 *877:5 0.00106922
11 *808:7 *880:13 0.000542527
12 *808:19 *898:wbs_dat_i[7] 0.000616609
13 *808:19 *898:wbs_stb_i 0.00337694
14 *808:19 *814:19 1.98028e-05
15 *808:19 *819:19 0.00100892
16 *808:19 *828:15 4.89546e-05
17 *808:21 *898:wbs_adr_i[2] 0.00204743
18 *808:21 *819:21 6.8367e-05
19 *808:21 *838:11 0.00012144
20 *808:21 *845:9 0
21 *808:21 *880:29 0.000449595
22 *808:21 *883:21 0.00337391
23 *114:29 *808:21 0.0307715
24 *142:26 *808:21 0
25 *541:27 *808:19 0.00572494
26 *541:35 *808:21 7.40057e-05
27 *656:29 *808:19 0.000432342
28 *671:9 *808:9 0.000274007
29 *739:9 *808:9 0.00055459
30 *761:17 *808:9 0.00154641
31 *770:17 *808:9 0.0045303
32 *790:9 *808:9 0.00167684
33 *791:9 *808:9 0.025632
34 *797:9 *808:9 0.0275543
35 *798:13 *808:21 0.0244674
*RES
1 *897:sram_adr_o[27] *808:7 12.4501 
2 *808:7 *808:9 399.475 
3 *808:9 *808:19 42.6343 
4 *808:19 *808:21 339.362 
5 *808:21 *898:wbs_adr_i[27] 16.6571 
*END

*D_NET *809 0.103566
*CONN
*I *898:wbs_adr_i[28] I *D CF_SRAM_1024x32_wb_wrapper
*I *897:sram_adr_o[28] O *D soc_sys
*CAP
1 *898:wbs_adr_i[28] 0.00162469
2 *897:sram_adr_o[28] 0.0129273
3 *809:9 0.0179521
4 *809:7 0.0163274
5 *809:5 0.0129273
6 *898:wbs_adr_i[28] *898:wbs_dat_i[22] 0.000196515
7 *898:wbs_adr_i[28] *898:wbs_dat_i[26] 0.000161889
8 *898:wbs_adr_i[28] *834:11 0.000470261
9 *898:wbs_adr_i[28] *839:12 0.000191358
10 *809:5 *897:sram_dat_i[28] 0.0139188
11 *809:5 *877:5 0
12 *809:5 *878:11 0.000199617
13 *809:5 *879:5 0.00357201
14 *809:5 *880:13 0.0117891
15 *809:9 *875:17 0.0108489
16 *107:21 *898:wbs_adr_i[28] 0.000458676
*RES
1 *897:sram_adr_o[28] *809:5 72.6712 
2 *809:5 *809:7 8 
3 *809:7 *809:9 72.0272 
4 *809:9 *898:wbs_adr_i[28] 18.7507 
*END

*D_NET *810 0.113929
*CONN
*I *898:wbs_adr_i[29] I *D CF_SRAM_1024x32_wb_wrapper
*I *897:sram_adr_o[29] O *D soc_sys
*CAP
1 *898:wbs_adr_i[29] 0.000226064
2 *897:sram_adr_o[29] 0.0122987
3 *810:29 0.00107989
4 *810:27 0.000853826
5 *810:25 0.000615933
6 *810:9 0.0218592
7 *810:7 0.0212433
8 *810:5 0.0122987
9 *898:wbs_adr_i[29] *898:wbs_dat_i[29] 0
10 *898:wbs_adr_i[29] *842:7 0
11 *810:5 *897:sram_dat_i[29] 0.0174417
12 *810:5 *879:5 0.0174417
13 *810:9 *883:9 0
14 *810:25 *834:11 4.62763e-05
15 *810:25 *838:11 5.10545e-05
16 *810:25 *839:12 0.000665996
17 *810:25 *883:9 0.000150289
18 *810:25 *883:19 1.58785e-05
19 *810:29 *842:9 0.00437643
20 *810:29 *845:9 0.00261932
21 *810:29 *880:29 0.000120857
22 *898:wbs_adr_i[22] *810:25 0.000110706
23 *898:wbs_adr_i[24] *810:29 0.000413375
24 *107:21 *810:25 0
25 *801:17 *810:9 0
*RES
1 *897:sram_adr_o[29] *810:5 68.7213 
2 *810:5 *810:7 8 
3 *810:7 *810:9 73.0427 
4 *810:9 *810:25 35.5235 
5 *810:25 *810:27 15 
6 *810:27 *810:29 50.6464 
7 *810:29 *898:wbs_adr_i[29] 18.0657 
*END

*D_NET *811 0.112042
*CONN
*I *898:wbs_adr_i[2] I *D CF_SRAM_1024x32_wb_wrapper
*I *897:sram_adr_o[2] O *D soc_sys
*CAP
1 *898:wbs_adr_i[2] 0.00323687
2 *897:sram_adr_o[2] 0.00592516
3 *811:9 0.00829749
4 *811:7 0.0109858
5 *898:wbs_adr_i[2] *898:wbs_adr_i[3] 0.0141754
6 *898:wbs_adr_i[2] *898:wbs_dat_i[7] 0.00382387
7 *898:wbs_adr_i[2] *898:wbs_sel_i[1] 0
8 *898:wbs_adr_i[2] *898:wbs_stb_i 0.0128169
9 *898:wbs_adr_i[2] *838:11 0.00074641
10 *898:wbs_adr_i[2] *839:12 0.000838054
11 *898:wbs_adr_i[2] *844:11 0
12 *898:wbs_adr_i[2] *881:13 0.000444333
13 *811:7 *897:sram_dat_i[2] 0.00246863
14 *811:7 *897:sram_dat_i[3] 0
15 *811:7 *814:7 0
16 *811:7 *855:7 0.00340392
17 *811:7 *856:7 0
18 *811:9 *828:17 0
19 *811:9 *847:13 5.11534e-05
20 *811:9 *855:9 0.0227579
21 *724:9 *811:9 0.00200064
22 *732:9 *811:9 0.000756325
23 *783:15 *811:7 1.67032e-05
24 *798:13 *898:wbs_adr_i[2] 0.00236377
25 *806:17 *811:9 0.0148852
26 *808:21 *898:wbs_adr_i[2] 0.00204743
*RES
1 *897:sram_adr_o[2] *811:7 23.6987 
2 *811:7 *811:9 291.015 
3 *811:9 *898:wbs_adr_i[2] 45.5109 
*END

*D_NET *812 0.121371
*CONN
*I *898:wbs_adr_i[30] I *D CF_SRAM_1024x32_wb_wrapper
*I *897:sram_adr_o[30] O *D soc_sys
*CAP
1 *898:wbs_adr_i[30] 9.31071e-05
2 *897:sram_adr_o[30] 0.0165116
3 *812:17 0.000977377
4 *812:9 0.0124252
5 *812:7 0.0115409
6 *812:5 0.0165116
7 *898:wbs_adr_i[30] *898:wbs_dat_i[29] 0
8 *898:wbs_adr_i[30] *898:wbs_dat_i[30] 0
9 *812:5 *897:sram_dat_i[29] 0.00955515
10 *812:5 *897:sram_dat_i[30] 0.0157855
11 *812:5 *880:11 0.000161975
12 *812:5 *882:5 0.00456614
13 *812:9 *876:9 0.030776
14 *812:17 *834:11 0.0002003
15 *109:21 *812:17 0.0022661
16 *805:17 *812:17 0
*RES
1 *897:sram_adr_o[30] *812:5 84.9931 
2 *812:5 *812:7 8 
3 *812:7 *812:9 409.335 
4 *812:9 *812:17 41.9182 
5 *812:17 *898:wbs_adr_i[30] 16.7193 
*END

*D_NET *813 0.118009
*CONN
*I *898:wbs_adr_i[31] I *D CF_SRAM_1024x32_wb_wrapper
*I *897:sram_adr_o[31] O *D soc_sys
*CAP
1 *898:wbs_adr_i[31] 3.19244e-05
2 *897:sram_adr_o[31] 0.00144947
3 *813:17 0.0218983
4 *813:15 0.0218664
5 *813:13 0.015455
6 *813:11 0.0169045
7 *898:wbs_adr_i[31] *898:wbs_dat_i[22] 0.000101859
8 *813:11 *897:sram_dat_i[31] 0.00107725
9 *813:11 *882:5 0.00108064
10 *813:13 *897:sram_dat_i[31] 0.00245822
11 *813:13 *883:5 0.0352514
12 *813:17 *846:10 0
13 *107:21 *898:wbs_adr_i[31] 2.26654e-05
14 *761:17 *813:11 0.000133345
15 *770:17 *813:11 0.000278027
*RES
1 *897:sram_adr_o[31] *813:11 24.1166 
2 *813:11 *813:13 77.3789 
3 *813:13 *813:15 8 
4 *813:15 *813:17 74.9467 
5 *813:17 *898:wbs_adr_i[31] 16.1848 
*END

*D_NET *814 0.110237
*CONN
*I *898:wbs_adr_i[3] I *D CF_SRAM_1024x32_wb_wrapper
*I *897:sram_adr_o[3] O *D soc_sys
*CAP
1 *898:wbs_adr_i[3] 0.00360238
2 *897:sram_adr_o[3] 0.00499549
3 *814:19 0.00394276
4 *814:9 0.00469061
5 *814:7 0.00934572
6 *898:wbs_adr_i[3] *898:wbs_cyc_i 0.0122477
7 *898:wbs_adr_i[3] *898:wbs_dat_i[3] 0
8 *898:wbs_adr_i[3] *898:wbs_dat_i[7] 0.00328107
9 *898:wbs_adr_i[3] *898:wbs_sel_i[2] 0
10 *898:wbs_adr_i[3] *898:wbs_stb_i 4.76467e-05
11 *898:wbs_adr_i[3] *817:13 0.000154844
12 *898:wbs_adr_i[3] *819:21 0.00250398
13 *898:wbs_adr_i[3] *820:21 0.00216887
14 *898:wbs_adr_i[3] *835:11 0.00303709
15 *898:wbs_adr_i[3] *838:11 0.00164571
16 *814:7 *897:sram_dat_i[3] 0.00342187
17 *814:7 *856:7 0.00313121
18 *814:9 *886:9 0.0231413
19 *814:19 *898:wbs_dat_i[7] 0.000124607
20 *814:19 *819:19 0.000514349
21 *814:19 *828:15 3.06313e-05
22 *814:19 *828:17 4.77164e-06
23 *814:19 *881:13 0.000506665
24 *898:wbs_adr_i[2] *898:wbs_adr_i[3] 0.0141754
25 *541:33 *814:19 4.07138e-06
26 *713:9 *814:9 0
27 *725:9 *814:9 0.000470255
28 *756:9 *814:9 0.00119718
29 *800:9 *814:9 0.011625
30 *806:17 *814:19 0.000206437
31 *808:19 *814:19 1.98028e-05
32 *811:7 *814:7 0
*RES
1 *897:sram_adr_o[3] *814:7 22.5824 
2 *814:7 *814:9 294.536 
3 *814:9 *814:19 27.9627 
4 *814:19 *898:wbs_adr_i[3] 40.5696 
*END

*D_NET *815 0.118971
*CONN
*I *898:wbs_adr_i[4] I *D CF_SRAM_1024x32_wb_wrapper
*I *897:sram_adr_o[4] O *D soc_sys
*CAP
1 *898:wbs_adr_i[4] 0.000489428
2 *897:sram_adr_o[4] 0.00467619
3 *815:15 0.00640109
4 *815:9 0.0102736
5 *815:7 0.00903813
6 *898:wbs_adr_i[4] *898:wbs_dat_i[4] 0
7 *898:wbs_adr_i[4] *898:wbs_sel_i[3] 0
8 *815:7 *897:sram_dat_i[4] 0.00194651
9 *815:7 *897:sram_dat_i[5] 0
10 *815:7 *816:7 0
11 *815:7 *857:7 0.00233933
12 *815:7 *884:7 0.000334502
13 *815:7 *885:7 0.00041453
14 *815:9 *818:9 0.000269819
15 *815:9 *821:9 0.0217072
16 *815:9 *822:13 0
17 *815:9 *856:9 0.023506
18 *815:15 *817:13 1.73198e-05
19 *815:15 *818:13 0.0175962
20 *815:15 *833:9 0.00643358
21 *815:15 *849:11 0
22 *40:13 *815:9 0.000786329
23 *142:26 *815:15 0.00115532
24 *714:9 *815:9 0
25 *726:9 *815:9 0.000705997
26 *791:19 *815:15 0.00244017
27 *797:21 *815:15 0.00036432
28 *802:13 *815:15 0.00278613
29 *804:13 *815:15 0.00283447
30 *806:21 *815:15 0.00245513
*RES
1 *897:sram_adr_o[4] *815:7 21.2085 
2 *815:7 *815:9 307.214 
3 *815:9 *815:15 49.7157 
4 *815:15 *898:wbs_adr_i[4] 7.11536 
*END

*D_NET *816 0.104595
*CONN
*I *898:wbs_adr_i[5] I *D CF_SRAM_1024x32_wb_wrapper
*I *897:sram_adr_o[5] O *D soc_sys
*CAP
1 *898:wbs_adr_i[5] 0
2 *897:sram_adr_o[5] 0.00421979
3 *816:17 0.00510484
4 *816:9 0.00896106
5 *816:7 0.00807601
6 *816:7 *897:sram_dat_i[5] 0.00299438
7 *816:7 *885:7 0.00294263
8 *816:9 *822:13 0.0217296
9 *816:9 *825:21 3.38806e-05
10 *816:9 *870:13 0.0222238
11 *816:9 *885:9 0.000674829
12 *816:17 *898:wbs_dat_i[7] 0.00273416
13 *816:17 *898:wbs_sel_i[0] 0.00482171
14 *816:17 *839:12 0.000771077
15 *816:17 *881:13 0.0164939
16 *107:21 *816:17 0.000645744
17 *540:50 *816:17 0.000117839
18 *714:9 *816:9 0.00099314
19 *726:9 *816:9 0.00105694
20 *815:7 *816:7 0
*RES
1 *897:sram_adr_o[5] *816:7 20.6933 
2 *816:7 *816:9 302.284 
3 *816:9 *816:17 43.7579 
4 *816:17 *898:wbs_adr_i[5] 8 
*END

*D_NET *817 0.109356
*CONN
*I *898:wbs_adr_i[6] I *D CF_SRAM_1024x32_wb_wrapper
*I *897:sram_adr_o[6] O *D soc_sys
*CAP
1 *898:wbs_adr_i[6] 0.000284768
2 *897:sram_adr_o[6] 0.00214693
3 *817:13 0.00599267
4 *817:11 0.0057079
5 *817:9 0.00542069
6 *817:7 0.00756762
7 *898:wbs_adr_i[6] *898:wbs_dat_i[6] 0
8 *898:wbs_adr_i[6] *849:7 0
9 *817:7 *897:sram_dat_i[6] 0.00138709
10 *817:7 *886:7 0.00138709
11 *817:9 *840:21 0
12 *817:9 *851:13 0.0108271
13 *817:13 *898:wbs_cyc_i 0.0134427
14 *817:13 *818:13 0.000642453
15 *817:13 *835:11 0.00526406
16 *817:13 *847:9 0.00108398
17 *898:wbs_adr_i[1] *817:13 0.0143844
18 *898:wbs_adr_i[3] *817:13 0.000154844
19 *65:21 *817:13 0.000578978
20 *541:27 *817:13 0.00130927
21 *649:13 *817:9 0.0238658
22 *652:33 *817:9 0.00238222
23 *657:25 *817:13 0.00148803
24 *658:25 *817:13 0.000754848
25 *688:9 *817:9 0.00311276
26 *791:19 *817:13 1.71433e-05
27 *794:19 *817:13 0.000135401
28 *815:15 *817:13 1.73198e-05
*RES
1 *897:sram_adr_o[6] *817:7 14.3392 
2 *817:7 *817:9 312.848 
3 *817:9 *817:11 8 
4 *817:11 *817:13 43.1611 
5 *817:13 *898:wbs_adr_i[6] 12.2982 
*END

*D_NET *818 0.113653
*CONN
*I *898:wbs_adr_i[7] I *D CF_SRAM_1024x32_wb_wrapper
*I *897:sram_adr_o[7] O *D soc_sys
*CAP
1 *898:wbs_adr_i[7] 0.000430317
2 *897:sram_adr_o[7] 0.005106
3 *818:13 0.00705321
4 *818:9 0.0142326
5 *818:7 0.0127158
6 *898:wbs_adr_i[7] *850:7 0
7 *898:wbs_adr_i[7] *851:7 0
8 *818:7 *897:sram_dat_i[6] 1.41809e-05
9 *818:7 *897:sram_dat_i[7] 0.00147503
10 *818:7 *886:7 0
11 *818:7 *887:7 0.00205717
12 *818:7 *888:7 0.000329344
13 *818:7 *889:7 0
14 *818:9 *856:9 0.0234531
15 *818:9 *871:9 0
16 *818:13 *835:11 0.000147577
17 *818:13 *847:9 0.0158853
18 *818:13 *849:11 0
19 *818:13 *853:9 0
20 *898:wbs_adr_i[1] *818:13 0.000350006
21 *40:13 *818:9 0.000615112
22 *113:21 *818:13 0.00245513
23 *677:9 *818:9 0.000628751
24 *689:9 *818:9 0.00340758
25 *714:9 *818:9 0
26 *744:9 *818:9 0.00195418
27 *807:13 *818:13 0.00283447
28 *815:9 *818:9 0.000269819
29 *815:15 *818:13 0.0175962
30 *817:13 *818:13 0.000642453
*RES
1 *897:sram_adr_o[7] *818:7 21.3803 
2 *818:7 *818:9 319.186 
3 *818:9 *818:13 45.408 
4 *818:13 *898:wbs_adr_i[7] 14.4111 
*END

*D_NET *819 0.106568
*CONN
*I *898:wbs_adr_i[8] I *D CF_SRAM_1024x32_wb_wrapper
*I *897:sram_adr_o[8] O *D soc_sys
*CAP
1 *898:wbs_adr_i[8] 0.000207767
2 *897:sram_adr_o[8] 0.00071723
3 *819:21 0.00421845
4 *819:19 0.00686439
5 *819:9 0.0125388
6 *819:7 0.0104023
7 *898:wbs_adr_i[8] *898:wbs_dat_i[8] 0
8 *898:wbs_adr_i[8] *851:7 0
9 *819:7 *897:sram_dat_i[8] 0.000494232
10 *819:7 *888:7 0.000504334
11 *819:19 *898:wbs_dat_i[7] 0.000478067
12 *819:19 *898:wbs_stb_i 0.00367058
13 *819:19 *847:13 0.000141472
14 *819:19 *881:13 0.00226042
15 *819:21 *820:21 0.0178748
16 *898:wbs_adr_i[3] *819:21 0.00250398
17 *67:229 *819:9 0.000489005
18 *67:249 *819:9 0.0103759
19 *103:39 *819:9 0.00156092
20 *142:26 *819:21 0
21 *540:50 *819:19 0.000233525
22 *541:35 *819:21 0.011092
23 *647:31 *819:19 0.000552663
24 *650:35 *819:19 0.000328731
25 *650:37 *819:19 0.000240343
26 *651:31 *819:19 0.000326147
27 *651:33 *819:19 0.000208177
28 *656:29 *819:19 0.00169748
29 *673:9 *819:9 0.00367929
30 *716:9 *819:9 0.000346093
31 *727:9 *819:9 0.000998322
32 *743:9 *819:9 0
33 *748:9 *819:9 0.00976806
34 *763:9 *819:9 0
35 *793:13 *819:19 0.00013924
36 *798:13 *819:21 6.37748e-05
37 *808:19 *819:19 0.00100892
38 *808:21 *819:21 6.8367e-05
39 *814:19 *819:19 0.000514349
*RES
1 *897:sram_adr_o[8] *819:7 10.1317 
2 *819:7 *819:9 317.778 
3 *819:9 *819:19 46.9623 
4 *819:19 *819:21 200.245 
5 *819:21 *898:wbs_adr_i[8] 17.7136 
*END

*D_NET *820 0.107183
*CONN
*I *898:wbs_adr_i[9] I *D CF_SRAM_1024x32_wb_wrapper
*I *897:sram_adr_o[9] O *D soc_sys
*CAP
1 *898:wbs_adr_i[9] 0.000180323
2 *897:sram_adr_o[9] 0.00598581
3 *820:21 0.00297245
4 *820:19 0.00279213
5 *820:17 0.000236003
6 *820:9 0.00894952
7 *820:7 0.0146993
8 *898:wbs_adr_i[9] *898:wbs_dat_i[9] 0
9 *898:wbs_adr_i[9] *852:7 0
10 *820:7 *897:sram_dat_i[9] 0.00266714
11 *820:7 *860:7 0
12 *820:7 *889:7 0.00334949
13 *820:9 *849:13 0
14 *820:9 *864:9 0.0250323
15 *820:17 *832:17 0.000309683
16 *820:17 *864:23 0.000309824
17 *898:wbs_adr_i[3] *820:21 0.00216887
18 *142:26 *820:21 0
19 *683:9 *820:9 0
20 *798:13 *820:21 0.0185217
21 *806:13 *820:9 0.0011334
22 *819:21 *820:21 0.0178748
*RES
1 *897:sram_adr_o[9] *820:7 24.6432 
2 *820:7 *820:9 317.954 
3 *820:9 *820:17 35.9243 
4 *820:17 *820:19 15 
5 *820:19 *820:21 203.58 
6 *820:21 *898:wbs_adr_i[9] 17.3614 
*END

*D_NET *821 0.0883438
*CONN
*I *898:wbs_cyc_i I *D CF_SRAM_1024x32_wb_wrapper
*I *897:sram_cyc_o O *D soc_sys
*CAP
1 *898:wbs_cyc_i 0.00299024
2 *897:sram_cyc_o 0.00535663
3 *821:9 0.00932453
4 *821:7 0.0116909
5 *898:wbs_cyc_i *898:wbs_stb_i 1.77747e-05
6 *821:7 *897:sram_dat_i[0] 0
7 *821:7 *858:7 0.0019263
8 *821:9 *822:13 0
9 *897:sram_ack_i *821:7 0.00119318
10 *898:wbs_adr_i[3] *898:wbs_cyc_i 0.0122477
11 *40:13 *821:9 0.000332775
12 *540:56 *821:9 4.15302e-05
13 *541:27 *898:wbs_cyc_i 0.00113359
14 *541:35 *898:wbs_cyc_i 0.00204743
15 *690:7 *821:7 0.000610729
16 *714:9 *821:9 0.00350333
17 *726:9 *821:9 0.000777287
18 *788:7 *898:wbs_cyc_i 0
19 *815:9 *821:9 0.0217072
20 *817:13 *898:wbs_cyc_i 0.0134427
*RES
1 *897:sram_cyc_o *821:7 21.1227 
2 *821:7 *821:9 276.929 
3 *821:9 *898:wbs_cyc_i 45.2382 
*END

*D_NET *822 0.101502
*CONN
*I *897:sram_dat_i[0] I *D soc_sys
*I *898:wbs_dat_o[0] O *D CF_SRAM_1024x32_wb_wrapper
*CAP
1 *897:sram_dat_i[0] 0.00538165
2 *898:wbs_dat_o[0] 0.0034923
3 *822:13 0.011492
4 *822:11 0.00611039
5 *822:9 0.0034923
6 *897:sram_dat_i[0] *854:7 0.000358786
7 *897:sram_dat_i[0] *858:7 0
8 *897:sram_dat_i[0] *859:7 0.0012513
9 *897:sram_dat_i[0] *891:7 0.000639916
10 *822:9 *898:wbs_dat_i[0] 0
11 *822:9 *849:11 0.000254604
12 *822:9 *870:19 0.014776
13 *822:13 *870:13 0.000377532
14 *822:13 *885:9 1.70419e-05
15 *898:wbs_adr_i[1] *822:9 0
16 *540:56 *822:13 0.000155456
17 *650:23 *897:sram_dat_i[0] 0.00029543
18 *651:19 *897:sram_dat_i[0] 0.000109746
19 *714:9 *822:13 0.0104914
20 *726:9 *822:13 0.00123025
21 *789:7 *897:sram_dat_i[0] 0.000187081
22 *789:13 *822:9 0.0148368
23 *791:21 *822:9 0.00250398
24 *792:21 *822:9 0.00216887
25 *794:19 *822:13 9.69591e-05
26 *795:19 *822:13 5.21472e-05
27 *800:7 *897:sram_dat_i[0] 0
28 *815:9 *822:13 0
29 *816:9 *822:13 0.0217296
30 *821:7 *897:sram_dat_i[0] 0
31 *821:9 *822:13 0
*RES
1 *898:wbs_dat_o[0] *822:9 46.0669 
2 *822:9 *822:11 8 
3 *822:11 *822:13 288.902 
4 *822:13 *897:sram_dat_i[0] 20.7792 
*END

*D_NET *823 0.127349
*CONN
*I *897:sram_dat_i[10] I *D soc_sys
*I *898:wbs_dat_o[10] O *D CF_SRAM_1024x32_wb_wrapper
*CAP
1 *897:sram_dat_i[10] 0.00298842
2 *898:wbs_dat_o[10] 0.0011459
3 *823:17 0.00802889
4 *823:15 0.00504047
5 *823:13 0.00951056
6 *823:7 0.0106565
7 *897:sram_dat_i[10] *860:7 0.00188819
8 *897:sram_dat_i[10] *890:7 0.000432447
9 *823:7 *898:wbs_dat_i[10] 0
10 *823:7 *898:wbs_dat_i[11] 0.000107371
11 *823:13 *898:wbs_dat_i[11] 0
12 *823:13 *824:19 0.00185336
13 *823:13 *825:9 0.0027789
14 *823:13 *826:9 0.000467177
15 *823:13 *826:19 0.00434299
16 *823:13 *828:9 0.000113656
17 *823:13 *844:11 0.000216495
18 *823:13 *848:17 0.000500165
19 *823:13 *850:11 0.000263739
20 *823:13 *853:9 0
21 *823:13 *855:15 0.0121186
22 *823:13 *860:13 0.003118
23 *823:13 *861:35 0.00389976
24 *823:13 *864:25 0.000128728
25 *823:13 *866:19 0.0017145
26 *823:13 *868:19 0.000353981
27 *823:17 *868:9 0.0268141
28 *823:17 *887:9 0.02562
29 *898:wbs_adr_i[11] *823:7 0
30 *651:21 *823:17 0.00166822
31 *686:9 *823:17 0.00060035
32 *790:7 *897:sram_dat_i[10] 0.000977104
*RES
1 *898:wbs_dat_o[10] *823:7 25.6796 
2 *823:7 *823:13 47.3051 
3 *823:13 *823:15 8 
4 *823:15 *823:17 345.949 
5 *823:17 *897:sram_dat_i[10] 16.5717 
*END

*D_NET *824 0.155406
*CONN
*I *897:sram_dat_i[11] I *D soc_sys
*I *898:wbs_dat_o[11] O *D CF_SRAM_1024x32_wb_wrapper
*CAP
1 *897:sram_dat_i[11] 0.00241452
2 *898:wbs_dat_o[11] 0.0136564
3 *824:21 0.0181891
4 *824:19 0.029431
5 *897:sram_dat_i[11] *860:7 0.000218381
6 *897:sram_dat_i[11] *861:7 0.00151709
7 *824:19 *898:wbs_dat_i[11] 0
8 *824:19 *898:wbs_dat_i[23] 4.62763e-05
9 *824:19 *825:19 0.000281864
10 *824:19 *826:19 0.000306271
11 *824:19 *829:19 0.000429484
12 *824:19 *844:11 0.00334986
13 *824:19 *844:15 0.000839922
14 *824:19 *848:17 0.00375616
15 *824:19 *848:21 0.000998615
16 *824:19 *850:11 0.00435919
17 *824:19 *853:9 0.00377109
18 *824:19 *855:15 0.00103031
19 *824:19 *861:35 0.0090564
20 *824:19 *865:19 0.000262173
21 *824:19 *884:19 0.00224931
22 *824:21 *840:21 0.00211768
23 *824:21 *852:13 0.000838511
24 *824:21 *865:9 0.00114102
25 *824:21 *872:9 0.00125623
26 *824:21 *891:9 0.000838511
27 *898:wbs_adr_i[10] *824:19 0.0191118
28 *898:wbs_adr_i[11] *824:19 0
29 *898:wbs_adr_i[12] *824:19 0
30 *141:13 *824:19 0.000243724
31 *143:39 *824:19 0.000273391
32 *652:33 *824:21 0.00432197
33 *658:21 *824:21 0
34 *719:9 *824:21 0.0131787
35 *740:9 *824:21 0.0112008
36 *769:9 *824:21 0.000416294
37 *788:11 *824:19 0.00149827
38 *791:7 *897:sram_dat_i[11] 0.00095205
39 *823:13 *824:19 0.00185336
*RES
1 *898:wbs_dat_o[11] *824:19 30.8489 
2 *824:19 *824:21 62.5072 
3 *824:21 *897:sram_dat_i[11] 14.8973 
*END

*D_NET *825 0.114965
*CONN
*I *897:sram_dat_i[12] I *D soc_sys
*I *898:wbs_dat_o[12] O *D CF_SRAM_1024x32_wb_wrapper
*CAP
1 *897:sram_dat_i[12] 0.00411885
2 *898:wbs_dat_o[12] 0.00111781
3 *825:21 0.00985849
4 *825:19 0.00698555
5 *825:9 0.00792166
6 *825:7 0.00779356
7 *897:sram_dat_i[12] *860:7 0
8 *897:sram_dat_i[12] *861:7 0.000637911
9 *897:sram_dat_i[12] *862:7 0.0026277
10 *825:7 *898:wbs_dat_i[12] 0
11 *825:9 *826:9 0.0203392
12 *825:9 *855:15 0.000597699
13 *825:19 *849:11 2.0599e-05
14 *825:19 *853:9 0.0029148
15 *825:19 *884:19 0.000246935
16 *825:21 *860:9 0.0109718
17 *825:21 *885:9 0.0246547
18 *898:wbs_adr_i[13] *825:7 0
19 *110:21 *825:9 0
20 *680:9 *825:21 0.00601603
21 *714:9 *825:21 0
22 *726:9 *825:21 0.000137256
23 *738:9 *825:21 0.00072238
24 *761:13 *897:sram_dat_i[12] 0.000773194
25 *789:13 *825:19 0.000212937
26 *792:7 *897:sram_dat_i[12] 0.00122338
27 *792:19 *825:19 0.00197748
28 *816:9 *825:21 3.38806e-05
29 *823:13 *825:9 0.0027789
30 *824:19 *825:19 0.000281864
*RES
1 *898:wbs_dat_o[12] *825:7 32.1514 
2 *825:7 *825:9 222.637 
3 *825:9 *825:19 41.0983 
4 *825:19 *825:21 348.062 
5 *825:21 *897:sram_dat_i[12] 20.4357 
*END

*D_NET *826 0.118101
*CONN
*I *897:sram_dat_i[13] I *D soc_sys
*I *898:wbs_dat_o[13] O *D CF_SRAM_1024x32_wb_wrapper
*CAP
1 *897:sram_dat_i[13] 0.00102745
2 *898:wbs_dat_o[13] 0.00105516
3 *826:21 0.0111809
4 *826:19 0.0124034
5 *826:9 0.00537174
6 *826:7 0.00417693
7 *897:sram_dat_i[13] *863:7 0.000778474
8 *826:7 *898:wbs_dat_i[13] 0
9 *826:7 *898:wbs_dat_i[14] 0
10 *826:9 *855:15 0.00294466
11 *826:9 *864:25 0.0216455
12 *826:19 *840:19 0.000164934
13 *826:19 *855:15 0.000275568
14 *826:19 *861:35 0.000696135
15 *826:19 *868:19 1.43527e-05
16 *898:wbs_adr_i[10] *826:19 0.000145641
17 *898:wbs_adr_i[14] *826:7 0
18 *40:21 *826:21 0.00571995
19 *110:21 *826:9 0
20 *143:39 *826:19 0.00168331
21 *733:9 *826:21 3.38806e-05
22 *734:9 *826:21 0.000524036
23 *745:9 *826:21 0.0118394
24 *761:13 *826:21 0.000131084
25 *772:9 *826:21 0.000330531
26 *779:9 *826:21 0.00846671
27 *788:11 *826:19 0.00125671
28 *793:7 *897:sram_dat_i[13] 0.000778474
29 *823:13 *826:9 0.000467177
30 *823:13 *826:19 0.00434299
31 *824:19 *826:19 0.000306271
32 *825:9 *826:9 0.0203392
*RES
1 *898:wbs_dat_o[13] *826:7 31.7993 
2 *826:7 *826:9 236.93 
3 *826:9 *826:19 46.1808 
4 *826:19 *826:21 357.922 
5 *826:21 *897:sram_dat_i[13] 11.248 
*END

*D_NET *827 0.131665
*CONN
*I *897:sram_dat_i[14] I *D soc_sys
*I *898:wbs_dat_o[14] O *D CF_SRAM_1024x32_wb_wrapper
*CAP
1 *897:sram_dat_i[14] 0.00328153
2 *898:wbs_dat_o[14] 0.000965149
3 *827:21 0.00901483
4 *827:19 0.00632761
5 *827:9 0.00443859
6 *827:7 0.00480944
7 *897:sram_dat_i[14] *863:7 0.000523033
8 *897:sram_dat_i[14] *864:7 0.00217429
9 *827:7 *898:wbs_dat_i[14] 0
10 *827:7 *898:wbs_dat_i[15] 0
11 *827:9 *828:9 0.0229819
12 *827:9 *844:11 0.000438944
13 *827:9 *848:17 0.000145518
14 *827:9 *865:21 0.0248309
15 *827:19 *844:17 6.69676e-05
16 *827:19 *850:11 0.000225706
17 *827:19 *853:9 0.000208821
18 *827:19 *865:19 0.000294899
19 *827:19 *890:9 0
20 *827:21 *857:9 0.0111487
21 *827:21 *866:9 0.0276984
22 *827:21 *888:9 0.00118823
23 *898:wbs_adr_i[15] *827:7 0
24 *685:9 *827:21 0.00607537
25 *737:9 *827:21 0.000675619
26 *788:11 *827:9 0.00210965
27 *792:19 *827:19 0.000960919
28 *794:7 *897:sram_dat_i[14] 0.00108019
*RES
1 *898:wbs_dat_o[14] *827:7 30.7429 
2 *827:7 *827:9 272.186 
3 *827:9 *827:19 35.9974 
4 *827:19 *827:21 356.514 
5 *827:21 *897:sram_dat_i[14] 17.7739 
*END

*D_NET *828 0.128696
*CONN
*I *897:sram_dat_i[15] I *D soc_sys
*I *898:wbs_dat_o[15] O *D CF_SRAM_1024x32_wb_wrapper
*CAP
1 *897:sram_dat_i[15] 0.00479462
2 *898:wbs_dat_o[15] 0.000975112
3 *828:17 0.0122835
4 *828:15 0.00836171
5 *828:9 0.00437003
6 *828:7 0.00447229
7 *897:sram_dat_i[15] *864:7 0.000965146
8 *897:sram_dat_i[15] *865:7 0.000471485
9 *828:7 *898:wbs_dat_i[15] 0
10 *828:7 *898:wbs_dat_i[16] 0
11 *828:9 *831:9 7.88685e-05
12 *828:9 *844:11 0.0003802
13 *828:9 *848:17 0.000128728
14 *828:9 *864:25 0.0221211
15 *828:9 *865:21 0.000247245
16 *828:15 *831:13 0.00105485
17 *828:15 *855:9 0
18 *828:15 *863:19 1.51581e-05
19 *828:17 *831:13 0.000283257
20 *828:17 *847:13 0
21 *828:17 *863:9 0.0267597
22 *898:wbs_adr_i[16] *828:7 0
23 *67:223 *897:sram_dat_i[15] 0.00615107
24 *110:21 *828:9 0
25 *541:33 *828:15 2.33476e-05
26 *721:9 *828:17 0.00141561
27 *742:9 *828:17 0
28 *778:9 *828:17 0.00140167
29 *788:11 *828:9 0.00251399
30 *793:9 *828:17 0
31 *795:7 *897:sram_dat_i[15] 0.00103884
32 *796:7 *897:sram_dat_i[15] 5.48735e-05
33 *806:17 *828:15 0
34 *806:17 *828:17 0.00515399
35 *808:19 *828:15 4.89546e-05
36 *811:9 *828:17 0
37 *814:19 *828:15 3.06313e-05
38 *814:19 *828:17 4.77164e-06
39 *823:13 *828:9 0.000113656
40 *827:9 *828:9 0.0229819
*RES
1 *898:wbs_dat_o[15] *828:7 31.095 
2 *828:7 *828:9 258.846 
3 *828:9 *828:15 31.7889 
4 *828:15 *828:17 348.062 
5 *828:17 *897:sram_dat_i[15] 23.3552 
*END

*D_NET *829 0.142691
*CONN
*I *897:sram_dat_i[16] I *D soc_sys
*I *898:wbs_dat_o[16] O *D CF_SRAM_1024x32_wb_wrapper
*CAP
1 *897:sram_dat_i[16] 0.00179331
2 *898:wbs_dat_o[16] 0.000816643
3 *829:21 0.00761364
4 *829:19 0.0064707
5 *829:9 0.00487537
6 *829:7 0.00504164
7 *897:sram_dat_i[16] *866:7 0.00149306
8 *829:7 *898:wbs_dat_i[16] 0
9 *829:7 *898:wbs_dat_i[17] 0
10 *829:9 *830:9 0.000728713
11 *829:9 *832:9 0.0236277
12 *829:9 *836:9 0.0237964
13 *829:9 *837:9 0.00037376
14 *829:9 *850:11 0.00340532
15 *829:9 *865:21 0.000491593
16 *829:19 *848:21 0.00116829
17 *829:19 *850:11 0.000846328
18 *829:19 *865:19 0.000541503
19 *829:21 *851:13 0.0254386
20 *829:21 *869:9 0.000961207
21 *898:wbs_adr_i[17] *829:7 0
22 *141:13 *829:19 0.000203165
23 *143:47 *829:9 0.000838895
24 *646:18 *829:21 0.0195593
25 *650:25 *829:21 0.00160275
26 *684:9 *829:21 0.00677028
27 *688:9 *829:21 0.0014407
28 *783:15 *829:21 0.000242841
29 *788:11 *829:19 0.000626261
30 *796:7 *897:sram_dat_i[16] 0.00149306
31 *824:19 *829:19 0.000429484
*RES
1 *898:wbs_dat_o[16] *829:7 28.9821 
2 *829:7 *829:9 293.149 
3 *829:9 *829:19 36.3747 
4 *829:19 *829:21 367.078 
5 *829:21 *897:sram_dat_i[16] 14.0816 
*END

*D_NET *830 0.136075
*CONN
*I *897:sram_dat_i[17] I *D soc_sys
*I *898:wbs_dat_o[17] O *D CF_SRAM_1024x32_wb_wrapper
*CAP
1 *897:sram_dat_i[17] 0.00458156
2 *898:wbs_dat_o[17] 0.000872379
3 *830:13 0.0114022
4 *830:11 0.00682061
5 *830:9 0.00369238
6 *830:7 0.00456476
7 *897:sram_dat_i[17] *866:7 0.000573336
8 *897:sram_dat_i[17] *867:7 0.00341789
9 *830:7 *898:wbs_dat_i[17] 0
10 *830:7 *898:wbs_dat_i[18] 0
11 *830:9 *831:9 0.0249691
12 *830:9 *832:9 0.0242778
13 *830:9 *844:15 0.000140203
14 *830:9 *848:17 0.00304304
15 *830:9 *850:11 0.00012144
16 *830:9 *865:21 0.000348901
17 *830:13 *862:9 0.0271508
18 *830:13 *871:9 0.0104397
19 *682:9 *830:13 0.00739401
20 *713:9 *830:13 0.000436886
21 *796:7 *897:sram_dat_i[17] 0
22 *797:7 *897:sram_dat_i[17] 0.00109902
23 *829:9 *830:9 0.000728713
*RES
1 *898:wbs_dat_o[17] *830:7 29.6864 
2 *830:7 *830:9 280.761 
3 *830:9 *830:11 15 
4 *830:11 *830:13 371.128 
5 *830:13 *897:sram_dat_i[17] 21.8955 
*END

*D_NET *831 0.148608
*CONN
*I *897:sram_dat_i[18] I *D soc_sys
*I *898:wbs_dat_o[18] O *D CF_SRAM_1024x32_wb_wrapper
*CAP
1 *897:sram_dat_i[18] 0.00470327
2 *898:wbs_dat_o[18] 0.000862476
3 *831:13 0.00978927
4 *831:11 0.005086
5 *831:9 0.0039761
6 *831:7 0.00483858
7 *897:sram_dat_i[18] *868:7 0.00208411
8 *831:7 *898:wbs_dat_i[18] 0
9 *831:7 *898:wbs_dat_i[19] 0
10 *831:7 *845:23 7.23298e-05
11 *831:9 *832:9 0.00036394
12 *831:9 *844:11 0.00247399
13 *831:9 *848:17 0.000190284
14 *831:9 *848:21 0.000130115
15 *831:9 *850:11 0.00010722
16 *831:9 *865:21 0.0234551
17 *831:13 *863:9 0.0267556
18 *831:13 *863:19 0.000233247
19 *898:wbs_adr_i[19] *831:7 0
20 *721:9 *831:13 0.00381617
21 *742:9 *831:13 0
22 *798:7 *897:sram_dat_i[18] 0.0037243
23 *799:5 *897:sram_dat_i[18] 0.000729682
24 *802:9 *831:13 0.0288302
25 *828:9 *831:9 7.88685e-05
26 *828:15 *831:13 0.00105485
27 *828:17 *831:13 0.000283257
28 *830:9 *831:9 0.0249691
*RES
1 *898:wbs_dat_o[18] *831:7 30.0386 
2 *831:7 *831:9 280.761 
3 *831:9 *831:11 15 
4 *831:11 *831:13 375.705 
5 *831:13 *897:sram_dat_i[18] 23.1835 
*END

*D_NET *832 0.149961
*CONN
*I *897:sram_dat_i[19] I *D soc_sys
*I *898:wbs_dat_o[19] O *D CF_SRAM_1024x32_wb_wrapper
*CAP
1 *897:sram_dat_i[19] 0.00541614
2 *898:wbs_dat_o[19] 0.00085881
3 *832:21 0.0095865
4 *832:19 0.00417036
5 *832:17 0.000884503
6 *832:9 0.0046577
7 *832:7 0.004632
8 *897:sram_dat_i[19] *869:7 0.0013276
9 *832:7 *898:wbs_dat_i[19] 0
10 *832:7 *898:wbs_dat_i[20] 0
11 *832:9 *836:9 0.00108873
12 *832:9 *844:15 0.00012144
13 *832:9 *848:17 0.00263579
14 *832:9 *850:11 0.000140203
15 *832:17 *836:15 0
16 *832:17 *864:23 0.000799594
17 *832:21 *836:17 0.028558
18 *732:9 *832:21 0.000761119
19 *796:9 *832:17 0.000731421
20 *799:5 *897:sram_dat_i[19] 0.00369144
21 *801:5 *897:sram_dat_i[19] 0.000952474
22 *804:9 *832:21 0.0285598
23 *806:13 *832:21 0.00180827
24 *820:17 *832:17 0.000309683
25 *829:9 *832:9 0.0236277
26 *830:9 *832:9 0.0242778
27 *831:9 *832:9 0.00036394
*RES
1 *898:wbs_dat_o[19] *832:7 29.3343 
2 *832:7 *832:9 280.285 
3 *832:9 *832:17 48.3943 
4 *832:17 *832:19 15 
5 *832:19 *832:21 363.028 
6 *832:21 *897:sram_dat_i[19] 24.2139 
*END

*D_NET *833 0.112203
*CONN
*I *897:sram_dat_i[1] I *D soc_sys
*I *898:wbs_dat_o[1] O *D CF_SRAM_1024x32_wb_wrapper
*CAP
1 *897:sram_dat_i[1] 0.00337247
2 *898:wbs_dat_o[1] 0.00504578
3 *833:13 0.00714694
4 *833:11 0.00377446
5 *833:9 0.00504578
6 *897:sram_dat_i[1] *870:11 0.00424556
7 *833:9 *898:wbs_dat_i[1] 0
8 *833:9 *898:wbs_sel_i[1] 0
9 *833:9 *849:11 6.92538e-05
10 *833:9 *870:19 0.0155393
11 *833:13 *844:17 0.0228988
12 *833:13 *853:13 0.0229012
13 *833:13 *861:9 0.0029748
14 *772:15 *897:sram_dat_i[1] 0.00275913
15 *789:13 *833:9 0.000188196
16 *791:19 *833:9 0.00341249
17 *794:21 *833:9 0.00264418
18 *795:21 *833:9 0.00229031
19 *797:19 *833:9 0.000159489
20 *800:7 *897:sram_dat_i[1] 0.00130151
21 *815:15 *833:9 0.00643358
*RES
1 *898:wbs_dat_o[1] *833:9 47.8354 
2 *833:9 *833:11 8 
3 *833:11 *833:13 293.128 
4 *833:13 *897:sram_dat_i[1] 19.3195 
*END

*D_NET *834 0.111585
*CONN
*I *897:sram_dat_i[20] I *D soc_sys
*I *898:wbs_dat_o[20] O *D CF_SRAM_1024x32_wb_wrapper
*CAP
1 *897:sram_dat_i[20] 0.0207595
2 *898:wbs_dat_o[20] 0.00240041
3 *834:15 0.0207595
4 *834:13 0.0160363
5 *834:11 0.0184367
6 *897:sram_dat_i[20] *835:17 0.00386729
7 *897:sram_dat_i[20] *871:7 0.0031208
8 *834:11 *898:wbs_dat_i[25] 0.0026733
9 *834:11 *898:wbs_dat_i[26] 0.0045324
10 *834:11 *838:11 0.00107052
11 *834:11 *839:12 0.00350876
12 *834:11 *841:13 0.000140203
13 *834:11 *841:29 0.000616914
14 *834:11 *842:17 0.000634261
15 *834:11 *843:14 0.000368165
16 *834:11 *880:27 4.07138e-06
17 *834:11 *883:19 4.62763e-05
18 *898:wbs_adr_i[19] *834:11 0.000421454
19 *898:wbs_adr_i[28] *834:11 0.000470261
20 *109:21 *834:11 0.000140203
21 *114:29 *834:11 0.00012144
22 *799:5 *897:sram_dat_i[20] 0
23 *801:5 *897:sram_dat_i[20] 0.0112099
24 *803:5 *897:sram_dat_i[20] 0
25 *810:25 *834:11 4.62763e-05
26 *812:17 *834:11 0.0002003
*RES
1 *898:wbs_dat_o[20] *834:11 32.3747 
2 *834:11 *834:13 369.895 
3 *834:13 *834:15 8 
4 *834:15 *897:sram_dat_i[20] 83.8768 
*END

*D_NET *835 0.110737
*CONN
*I *897:sram_dat_i[21] I *D soc_sys
*I *898:wbs_dat_o[21] O *D CF_SRAM_1024x32_wb_wrapper
*CAP
1 *897:sram_dat_i[21] 0.000807398
2 *898:wbs_dat_o[21] 0.00513337
3 *835:17 0.00926507
4 *835:13 0.0281119
5 *835:11 0.0247876
6 *897:sram_dat_i[21] *872:7 0.000551026
7 *835:11 *898:wbs_dat_i[23] 0.00915532
8 *835:11 *838:11 0.00478916
9 *835:11 *842:17 3.57139e-05
10 *835:11 *845:23 0.0010406
11 *835:11 *883:19 2.11283e-05
12 *835:17 *871:7 0.005779
13 *897:sram_dat_i[20] *835:17 0.00386729
14 *898:wbs_adr_i[19] *835:11 0.00182825
15 *898:wbs_adr_i[22] *835:11 0
16 *898:wbs_adr_i[3] *835:11 0.00303709
17 *748:9 *897:sram_dat_i[21] 5.43023e-05
18 *763:9 *897:sram_dat_i[21] 5.00306e-05
19 *802:7 *897:sram_dat_i[21] 0.000551026
20 *802:7 *835:17 0.00645977
21 *803:5 *835:17 0
22 *817:13 *835:11 0.00526406
23 *818:13 *835:11 0.000147577
*RES
1 *898:wbs_dat_o[21] *835:11 49.9179 
2 *835:11 *835:13 67.5845 
3 *835:13 *835:17 45.1075 
4 *835:17 *897:sram_dat_i[21] 20.5613 
*END

*D_NET *836 0.155528
*CONN
*I *897:sram_dat_i[22] I *D soc_sys
*I *898:wbs_dat_o[22] O *D CF_SRAM_1024x32_wb_wrapper
*CAP
1 *897:sram_dat_i[22] 0.00410864
2 *898:wbs_dat_o[22] 0.000834335
3 *836:17 0.00881234
4 *836:15 0.00547797
5 *836:9 0.00511415
6 *836:7 0.00517422
7 *897:sram_dat_i[22] *873:5 0.000193503
8 *897:sram_dat_i[22] *874:13 0.0077036
9 *836:9 *837:9 0.027684
10 *836:9 *850:11 0.00294958
11 *898:wbs_adr_i[22] *836:7 0
12 *898:wbs_adr_i[23] *836:7 0
13 *732:9 *836:17 0.000863405
14 *742:9 *836:17 0.0153769
15 *792:19 *836:15 0.000204429
16 *793:9 *836:17 0.00474147
17 *793:13 *836:15 0.000299691
18 *793:13 *836:17 0.00512339
19 *796:9 *836:15 2.36519e-05
20 *803:5 *897:sram_dat_i[22] 0.00398148
21 *804:9 *836:15 0.000586153
22 *804:9 *836:17 0.000505415
23 *806:13 *836:17 0.00232662
24 *829:9 *836:9 0.0237964
25 *832:9 *836:9 0.00108873
26 *832:17 *836:15 0
27 *832:21 *836:17 0.028558
*RES
1 *898:wbs_dat_o[22] *836:7 28.63 
2 *836:7 *836:9 303.63 
3 *836:9 *836:15 30.7325 
4 *836:15 *836:17 376.234 
5 *836:17 *897:sram_dat_i[22] 24.128 
*END

*D_NET *837 0.156129
*CONN
*I *897:sram_dat_i[23] I *D soc_sys
*I *898:wbs_dat_o[23] O *D CF_SRAM_1024x32_wb_wrapper
*CAP
1 *897:sram_dat_i[23] 0.00400702
2 *898:wbs_dat_o[23] 0.000789674
3 *837:13 0.00977035
4 *837:11 0.00576333
5 *837:9 0.0042946
6 *837:7 0.00508428
7 *897:sram_dat_i[23] *838:17 0.00621617
8 *897:sram_dat_i[23] *874:11 4.92571e-05
9 *837:7 *898:wbs_dat_i[23] 0
10 *837:7 *841:29 6.56284e-05
11 *837:9 *853:9 0.00354552
12 *837:13 *867:9 0.0104625
13 *837:13 *867:13 0.00220915
14 *837:13 *886:9 0.000220036
15 *898:wbs_adr_i[23] *837:7 0
16 *898:wbs_adr_i[24] *837:7 0
17 *74:79 *897:sram_dat_i[23] 1.741e-05
18 *118:71 *897:sram_dat_i[23] 0.000297357
19 *143:47 *837:9 0.0290099
20 *690:9 *837:13 0.0086666
21 *721:9 *837:13 0.000590181
22 *725:9 *837:13 0.002891
23 *804:7 *897:sram_dat_i[23] 0.00364481
24 *805:11 *897:sram_dat_i[23] 9.32797e-05
25 *805:13 *897:sram_dat_i[23] 2.26122e-05
26 *807:9 *837:13 0.0303604
27 *829:9 *837:9 0.00037376
28 *836:9 *837:9 0.027684
*RES
1 *898:wbs_dat_o[23] *837:7 28.2779 
2 *837:7 *837:9 318.399 
3 *837:9 *837:11 15 
4 *837:11 *837:13 395.073 
5 *837:13 *897:sram_dat_i[23] 22.84 
*END

*D_NET *838 0.147693
*CONN
*I *897:sram_dat_i[24] I *D soc_sys
*I *898:wbs_dat_o[24] O *D CF_SRAM_1024x32_wb_wrapper
*CAP
1 *897:sram_dat_i[24] 0.000985895
2 *898:wbs_dat_o[24] 0.00831898
3 *838:17 0.00757472
4 *838:13 0.0200836
5 *838:11 0.0218138
6 *897:sram_dat_i[24] *875:11 0.000407258
7 *838:11 *898:wbs_dat_i[7] 0.000341457
8 *838:11 *839:12 0.00171506
9 *838:11 *841:29 0.00216592
10 *838:11 *842:17 0.0106414
11 *838:11 *845:23 0.00107376
12 *838:11 *883:19 5.45304e-05
13 *838:13 *839:14 0.0292732
14 *838:17 *873:5 0.0026638
15 *897:sram_dat_i[23] *838:17 0.00621617
16 *898:wbs_adr_i[19] *838:11 0.00399025
17 *898:wbs_adr_i[24] *838:11 0
18 *898:wbs_adr_i[25] *838:11 0
19 *898:wbs_adr_i[2] *838:11 0.00074641
20 *898:wbs_adr_i[3] *838:11 0.00164571
21 *74:79 *897:sram_dat_i[24] 1.88299e-05
22 *748:9 *897:sram_dat_i[24] 3.04346e-05
23 *763:9 *897:sram_dat_i[24] 5.63283e-05
24 *798:13 *838:11 0.000140203
25 *804:7 *838:17 0.000233427
26 *805:11 *897:sram_dat_i[24] 0.000873874
27 *805:13 *838:17 0.0205955
28 *808:21 *838:11 0.00012144
29 *810:25 *838:11 5.10545e-05
30 *834:11 *838:11 0.00107052
31 *835:11 *838:11 0.00478916
*RES
1 *898:wbs_dat_o[24] *838:11 49.6256 
2 *838:11 *838:13 69.3616 
3 *838:13 *838:17 47.8552 
4 *838:17 *897:sram_dat_i[24] 21.5045 
*END

*D_NET *839 0.125546
*CONN
*I *897:sram_dat_i[25] I *D soc_sys
*I *898:wbs_dat_o[25] O *D CF_SRAM_1024x32_wb_wrapper
*CAP
1 *897:sram_dat_i[25] 0.00937102
2 *898:wbs_dat_o[25] 0.00591598
3 *839:14 0.0232651
4 *839:12 0.0198101
5 *897:sram_dat_i[25] *875:11 7.13444e-05
6 *897:sram_dat_i[25] *876:5 0.0116776
7 *839:12 *898:wbs_dat_i[11] 0.000560825
8 *839:12 *898:wbs_dat_i[22] 0.00113549
9 *839:12 *898:wbs_dat_i[25] 0.000267508
10 *839:12 *898:wbs_dat_i[7] 0.000375711
11 *839:12 *841:29 0.000728624
12 *839:12 *842:17 0.0063651
13 *839:12 *845:27 0.00178598
14 *839:12 *880:27 0.00249405
15 *839:12 *881:13 0.000545043
16 *898:wbs_adr_i[10] *839:12 0.000236634
17 *898:wbs_adr_i[20] *839:12 2.03202e-05
18 *898:wbs_adr_i[28] *839:12 0.000191358
19 *898:wbs_adr_i[2] *839:12 0.000838054
20 *74:79 *897:sram_dat_i[25] 0
21 *107:21 *839:12 0
22 *806:7 *897:sram_dat_i[25] 0.00395607
23 *810:25 *839:12 0.000665996
24 *816:17 *839:12 0.000771077
25 *834:11 *839:12 0.00350876
26 *838:11 *839:12 0.00171506
27 *838:13 *839:14 0.0292732
*RES
1 *898:wbs_dat_o[25] *839:12 49.1389 
2 *839:12 *839:14 70.504 
3 *839:14 *897:sram_dat_i[25] 49.9309 
*END

*D_NET *840 0.15745
*CONN
*I *897:sram_dat_i[26] I *D soc_sys
*I *898:wbs_dat_o[26] O *D CF_SRAM_1024x32_wb_wrapper
*CAP
1 *897:sram_dat_i[26] 0.00185253
2 *898:wbs_dat_o[26] 0.00108715
3 *840:21 0.0112176
4 *840:19 0.010154
5 *840:9 0.00626777
6 *840:7 0.0065659
7 *897:sram_dat_i[26] *841:35 0.00316118
8 *897:sram_dat_i[26] *877:5 0.00172038
9 *840:7 *898:wbs_dat_i[26] 0
10 *840:7 *898:wbs_dat_i[27] 0
11 *840:9 *860:13 0.00179792
12 *840:9 *861:35 0.000925274
13 *840:9 *866:21 2.18506e-05
14 *840:9 *868:21 0.0265642
15 *840:19 *857:13 0.00086631
16 *840:19 *859:13 0.000753414
17 *840:19 *868:19 0.00163347
18 *840:21 *851:13 0
19 *840:21 *872:9 0.0305973
20 *898:wbs_adr_i[26] *840:7 0
21 *898:wbs_adr_i[27] *840:7 0
22 *39:29 *840:9 0
23 *110:21 *840:9 0.0326759
24 *649:13 *840:21 0
25 *651:13 *840:21 0
26 *693:9 *840:21 0
27 *701:9 *840:21 0.0034453
28 *769:9 *840:21 0.0136917
29 *807:7 *897:sram_dat_i[26] 0.00016855
30 *817:9 *840:21 0
31 *824:21 *840:21 0.00211768
32 *826:19 *840:19 0.000164934
*RES
1 *898:wbs_dat_o[26] *840:7 34.9686 
2 *840:7 *840:9 357.943 
3 *840:9 *840:19 36.9844 
4 *840:19 *840:21 415.674 
5 *840:21 *897:sram_dat_i[26] 15.0261 
*END

*D_NET *841 0.119983
*CONN
*I *897:sram_dat_i[27] I *D soc_sys
*I *898:wbs_dat_o[27] O *D CF_SRAM_1024x32_wb_wrapper
*CAP
1 *897:sram_dat_i[27] 0.000333849
2 *898:wbs_dat_o[27] 0.00107413
3 *841:35 0.00861635
4 *841:33 0.0082825
5 *841:31 0.0207267
6 *841:29 0.0289615
7 *841:13 0.00930887
8 *897:sram_dat_i[27] *878:11 0.000550021
9 *897:sram_dat_i[27] *880:13 2.81221e-05
10 *841:13 *898:wbs_dat_i[27] 0
11 *841:13 *898:wbs_dat_i[28] 0
12 *841:29 *898:wbs_dat_i[23] 0
13 *841:29 *842:17 0.00199535
14 *841:29 *845:23 0.000233405
15 *841:29 *845:27 0.000553398
16 *841:29 *880:27 0.000619949
17 *841:31 *874:17 0
18 *841:35 *877:5 0.00883221
19 *841:35 *878:13 0.0113446
20 *897:sram_dat_i[26] *841:35 0.00316118
21 *898:wbs_adr_i[19] *841:29 0.0007137
22 *104:26 *897:sram_dat_i[27] 0.000384832
23 *107:21 *841:29 0.000711197
24 *109:21 *841:13 0.00259658
25 *807:7 *841:35 0.00705477
26 *808:7 *897:sram_dat_i[27] 0.000182025
27 *834:11 *841:13 0.000140203
28 *834:11 *841:29 0.000616914
29 *837:7 *841:29 6.56284e-05
30 *838:11 *841:29 0.00216592
31 *839:12 *841:29 0.000728624
*RES
1 *898:wbs_dat_o[27] *841:13 45.45 
2 *841:13 *841:29 36.2717 
3 *841:29 *841:31 71.2656 
4 *841:31 *841:33 8 
5 *841:33 *841:35 52.5635 
6 *841:35 *897:sram_dat_i[27] 21.8329 
*END

*D_NET *842 0.127073
*CONN
*I *897:sram_dat_i[28] I *D soc_sys
*I *898:wbs_dat_o[28] O *D CF_SRAM_1024x32_wb_wrapper
*CAP
1 *897:sram_dat_i[28] 0.00892653
2 *898:wbs_dat_o[28] 0.000201705
3 *842:23 0.00892653
4 *842:21 0.0213016
5 *842:19 0.0213016
6 *842:17 0.00326085
7 *842:9 0.00398231
8 *842:7 0.000923168
9 *897:sram_dat_i[28] *879:5 0.012462
10 *842:7 *898:wbs_dat_i[28] 0
11 *842:9 *845:9 9.6831e-05
12 *842:9 *880:29 0.00463037
13 *842:17 *898:wbs_dat_i[21] 2.07396e-05
14 *842:17 *898:wbs_dat_i[7] 0.000101554
15 *842:17 *880:27 0.0024996
16 *898:wbs_adr_i[19] *842:9 0.000470691
17 *898:wbs_adr_i[29] *842:7 0
18 *809:5 *897:sram_dat_i[28] 0.0139188
19 *810:29 *842:9 0.00437643
20 *834:11 *842:17 0.000634261
21 *835:11 *842:17 3.57139e-05
22 *838:11 *842:17 0.0106414
23 *839:12 *842:17 0.0063651
24 *841:29 *842:17 0.00199535
*RES
1 *898:wbs_dat_o[28] *842:7 17.7136 
2 *842:7 *842:9 51.1229 
3 *842:9 *842:17 44.2258 
4 *842:17 *842:19 8 
5 *842:19 *842:21 72.9157 
6 *842:21 *842:23 8 
7 *842:23 *897:sram_dat_i[28] 49.6589 
*END

*D_NET *843 0.131798
*CONN
*I *897:sram_dat_i[29] I *D soc_sys
*I *898:wbs_dat_o[29] O *D CF_SRAM_1024x32_wb_wrapper
*CAP
1 *897:sram_dat_i[29] 0.0178983
2 *898:wbs_dat_o[29] 0.00210804
3 *843:18 0.0178983
4 *843:16 0.0213623
5 *843:14 0.0234703
6 *897:sram_dat_i[29] *879:5 0.00199477
7 *897:sram_dat_i[29] *880:11 0.000161975
8 *897:sram_dat_i[29] *882:5 0
9 *843:14 *898:wbs_dat_i[22] 0.000778147
10 *843:14 *898:wbs_dat_i[26] 0.000319896
11 *843:16 *876:9 0.00337987
12 *107:21 *843:14 0.000446753
13 *799:9 *843:16 0.00327022
14 *803:9 *843:16 0.00528426
15 *805:17 *843:16 0.00605985
16 *810:5 *897:sram_dat_i[29] 0.0174417
17 *812:5 *897:sram_dat_i[29] 0.00955515
18 *834:11 *843:14 0.000368165
*RES
1 *898:wbs_dat_o[29] *843:14 18.6613 
2 *843:14 *843:16 73.0427 
3 *843:16 *843:18 8 
4 *843:18 *897:sram_dat_i[29] 85.5512 
*END

*D_NET *844 0.111728
*CONN
*I *897:sram_dat_i[2] I *D soc_sys
*I *898:wbs_dat_o[2] O *D CF_SRAM_1024x32_wb_wrapper
*CAP
1 *897:sram_dat_i[2] 0.00395637
2 *898:wbs_dat_o[2] 0.00358047
3 *844:17 0.0115257
4 *844:15 0.00858487
5 *844:11 0.004596
6 *897:sram_dat_i[2] *856:7 3.35677e-05
7 *897:sram_dat_i[2] *881:7 0.000646285
8 *844:11 *898:wbs_sel_i[2] 0
9 *844:11 *848:17 0.0139591
10 *844:11 *850:11 2.1933e-05
11 *844:11 *855:15 0.00141465
12 *844:11 *865:21 0.00285624
13 *844:15 *848:21 0.00377037
14 *844:15 *850:11 0.00382876
15 *844:17 *853:13 0.000366925
16 *844:17 *860:9 0
17 *844:17 *861:9 0.00190597
18 *844:17 *890:9 2.79882e-05
19 *898:wbs_adr_i[2] *844:11 0
20 *65:19 *844:17 9.86551e-06
21 *676:15 *897:sram_dat_i[2] 0.00126658
22 *694:9 *844:17 0
23 *720:9 *844:17 0
24 *730:9 *844:17 0.00331701
25 *755:9 *844:17 0.00064538
26 *783:15 *897:sram_dat_i[2] 0.0011633
27 *788:11 *844:11 0.0107765
28 *788:11 *844:15 2.1933e-05
29 *797:19 *844:17 5.69188e-05
30 *811:7 *897:sram_dat_i[2] 0.00246863
31 *823:13 *844:11 0.000216495
32 *824:19 *844:11 0.00334986
33 *824:19 *844:15 0.000839922
34 *827:9 *844:11 0.000438944
35 *827:19 *844:17 6.69676e-05
36 *828:9 *844:11 0.0003802
37 *830:9 *844:15 0.000140203
38 *831:9 *844:11 0.00247399
39 *832:9 *844:15 0.00012144
40 *833:13 *844:17 0.0228988
*RES
1 *898:wbs_dat_o[2] *844:11 49.5228 
2 *844:11 *844:15 15.2259 
3 *844:15 *844:17 305.101 
4 *844:17 *897:sram_dat_i[2] 19.4053 
*END

*D_NET *845 0.113666
*CONN
*I *897:sram_dat_i[30] I *D soc_sys
*I *898:wbs_dat_o[30] O *D CF_SRAM_1024x32_wb_wrapper
*CAP
1 *897:sram_dat_i[30] 0.00877171
2 *898:wbs_dat_o[30] 0.000274647
3 *845:31 0.00877171
4 *845:29 0.0216662
5 *845:27 0.0232857
6 *845:23 0.00222809
7 *845:9 0.00299846
8 *845:7 0.00266449
9 *897:sram_dat_i[30] *882:5 0.0157855
10 *845:7 *898:wbs_dat_i[30] 0
11 *845:7 *898:wbs_dat_i[31] 0
12 *845:9 *880:29 0.000213869
13 *845:9 *883:21 7.84736e-05
14 *845:23 *880:17 0.000163711
15 *845:27 *898:wbs_dat_i[11] 0.000155062
16 *898:wbs_adr_i[22] *845:9 0.000634396
17 *107:21 *845:27 0.000758786
18 *142:26 *845:9 0.00195399
19 *808:21 *845:9 0
20 *810:29 *845:9 0.00261932
21 *812:5 *897:sram_dat_i[30] 0.0157855
22 *831:7 *845:23 7.23298e-05
23 *835:11 *845:23 0.0010406
24 *838:11 *845:23 0.00107376
25 *839:12 *845:27 0.00178598
26 *841:29 *845:23 0.000233405
27 *841:29 *845:27 0.000553398
28 *842:9 *845:9 9.6831e-05
*RES
1 *898:wbs_dat_o[30] *845:7 18.77 
2 *845:7 *845:9 86.3786 
3 *845:9 *845:23 42.831 
4 *845:23 *845:27 15.9557 
5 *845:27 *845:29 73.9312 
6 *845:29 *845:31 8 
7 *845:31 *897:sram_dat_i[30] 55.8413 
*END

*D_NET *846 0.105809
*CONN
*I *897:sram_dat_i[31] I *D soc_sys
*I *898:wbs_dat_o[31] O *D CF_SRAM_1024x32_wb_wrapper
*CAP
1 *897:sram_dat_i[31] 0.013484
2 *898:wbs_dat_o[31] 3.19244e-05
3 *846:12 0.013484
4 *846:10 0.0217474
5 *846:8 0.0217793
6 *897:sram_dat_i[31] *882:5 0.011745
7 *897:sram_dat_i[31] *883:5 0.0198775
8 *846:8 *898:wbs_dat_i[22] 0.000101859
9 *107:21 *846:8 2.26654e-05
10 *813:11 *897:sram_dat_i[31] 0.00107725
11 *813:13 *897:sram_dat_i[31] 0.00245822
12 *813:17 *846:10 0
*RES
1 *898:wbs_dat_o[31] *846:8 16.1848 
2 *846:8 *846:10 74.5659 
3 *846:10 *846:12 8 
4 *846:12 *897:sram_dat_i[31] 82.6317 
*END

*D_NET *847 0.113877
*CONN
*I *897:sram_dat_i[3] I *D soc_sys
*I *898:wbs_dat_o[3] O *D CF_SRAM_1024x32_wb_wrapper
*CAP
1 *897:sram_dat_i[3] 0.00546711
2 *898:wbs_dat_o[3] 0.0036971
3 *847:13 0.00938248
4 *847:11 0.00391537
5 *847:9 0.0036971
6 *897:sram_dat_i[3] *884:7 0.00371606
7 *847:9 *898:wbs_dat_i[3] 0
8 *847:9 *898:wbs_sel_i[3] 0
9 *847:13 *855:9 0.0230107
10 *898:wbs_adr_i[1] *847:9 0.0136535
11 *65:13 *847:9 0.00283447
12 *732:9 *847:13 0.00301833
13 *793:9 *847:13 0.0180671
14 *793:13 *847:13 0.00283354
15 *811:7 *897:sram_dat_i[3] 0
16 *811:9 *847:13 5.11534e-05
17 *814:7 *897:sram_dat_i[3] 0.00342187
18 *817:13 *847:9 0.00108398
19 *818:13 *847:9 0.0158853
20 *819:19 *847:13 0.000141472
21 *828:17 *847:13 0
*RES
1 *898:wbs_dat_o[3] *847:9 43.902 
2 *847:9 *847:11 8 
3 *847:11 *847:13 301.579 
4 *847:13 *897:sram_dat_i[3] 23.8704 
*END

*D_NET *848 0.112334
*CONN
*I *897:sram_dat_i[4] I *D soc_sys
*I *898:wbs_dat_o[4] O *D CF_SRAM_1024x32_wb_wrapper
*CAP
1 *897:sram_dat_i[4] 0.00270066
2 *898:wbs_dat_o[4] 0.00102544
3 *848:23 0.0111463
4 *848:21 0.00998546
5 *848:17 0.00497285
6 *848:7 0.0044585
7 *897:sram_dat_i[4] *885:7 0.00194651
8 *848:7 *898:wbs_dat_i[4] 0
9 *848:7 *898:wbs_dat_i[5] 0
10 *848:17 *850:11 0.0158005
11 *848:17 *865:21 0.000164818
12 *848:21 *850:11 0.000257114
13 *848:21 *865:21 0.00015022
14 *848:23 *868:9 0.00646003
15 *848:23 *891:9 0
16 *651:21 *848:23 0.0019081
17 *691:9 *848:23 0.00728554
18 *718:9 *848:23 0.000766365
19 *741:25 *848:23 0.00547289
20 *788:11 *848:21 0.00545977
21 *815:7 *897:sram_dat_i[4] 0.00194651
22 *823:13 *848:17 0.000500165
23 *824:19 *848:17 0.00375616
24 *824:19 *848:21 0.000998615
25 *827:9 *848:17 0.000145518
26 *828:9 *848:17 0.000128728
27 *829:19 *848:21 0.00116829
28 *830:9 *848:17 0.00304304
29 *831:9 *848:17 0.000190284
30 *831:9 *848:21 0.000130115
31 *832:9 *848:17 0.00263579
32 *844:11 *848:17 0.0139591
33 *844:15 *848:21 0.00377037
*RES
1 *898:wbs_dat_o[4] *848:7 22.8625 
2 *848:7 *848:17 47.5025 
3 *848:17 *848:21 18.2741 
4 *848:21 *848:23 317.074 
5 *848:23 *897:sram_dat_i[4] 16.2283 
*END

*D_NET *849 0.09968
*CONN
*I *897:sram_dat_i[5] I *D soc_sys
*I *898:wbs_dat_o[5] O *D CF_SRAM_1024x32_wb_wrapper
*CAP
1 *897:sram_dat_i[5] 0.00621192
2 *898:wbs_dat_o[5] 0.000746885
3 *849:13 0.0147052
4 *849:11 0.0128774
5 *849:7 0.00513098
6 *897:sram_dat_i[5] *886:7 0.00346284
7 *849:7 *898:wbs_dat_i[5] 0
8 *849:7 *898:wbs_dat_i[6] 0
9 *849:11 *853:9 0.000647467
10 *849:11 *870:19 0.000264546
11 *849:11 *884:19 0.0083985
12 *849:13 *864:9 0
13 *849:13 *864:23 0
14 *849:13 *884:9 0.0241679
15 *898:wbs_adr_i[10] *849:11 0.00395714
16 *898:wbs_adr_i[6] *849:7 0
17 *683:9 *849:13 0.00344223
18 *789:13 *849:11 0.0123282
19 *815:7 *897:sram_dat_i[5] 0
20 *815:15 *849:11 0
21 *816:7 *897:sram_dat_i[5] 0.00299438
22 *818:13 *849:11 0
23 *820:9 *849:13 0
24 *822:9 *849:11 0.000254604
25 *825:19 *849:11 2.0599e-05
26 *833:9 *849:11 6.92538e-05
*RES
1 *898:wbs_dat_o[5] *849:7 19.3411 
2 *849:7 *849:11 39.6549 
3 *849:11 *849:13 317.074 
4 *849:13 *897:sram_dat_i[5] 25.416 
*END

*D_NET *850 0.125814
*CONN
*I *897:sram_dat_i[6] I *D soc_sys
*I *898:wbs_dat_o[6] O *D CF_SRAM_1024x32_wb_wrapper
*CAP
1 *897:sram_dat_i[6] 0.00305396
2 *898:wbs_dat_o[6] 0.000926268
3 *850:13 0.00876854
4 *850:11 0.0103979
5 *850:7 0.00560962
6 *897:sram_dat_i[6] *886:7 0.000206406
7 *897:sram_dat_i[6] *887:7 0.00156408
8 *850:7 *898:wbs_dat_i[6] 0
9 *850:11 *853:9 0.0211622
10 *850:11 *865:19 0.000803638
11 *850:13 *858:9 0.0215371
12 *850:13 *866:9 0
13 *850:13 *887:9 0.0112052
14 *898:wbs_adr_i[7] *850:7 0
15 *67:229 *897:sram_dat_i[6] 0.000730194
16 *143:45 *850:13 0.000100169
17 *651:21 *850:13 0.000948155
18 *657:21 *850:13 0
19 *686:9 *850:13 0.00333918
20 *753:9 *850:13 0.00132404
21 *757:9 *850:13 0.000409177
22 *817:7 *897:sram_dat_i[6] 0.00138709
23 *818:7 *897:sram_dat_i[6] 1.41809e-05
24 *823:13 *850:11 0.000263739
25 *824:19 *850:11 0.00435919
26 *827:19 *850:11 0.000225706
27 *829:9 *850:11 0.00340532
28 *829:19 *850:11 0.000846328
29 *830:9 *850:11 0.00012144
30 *831:9 *850:11 0.00010722
31 *832:9 *850:11 0.000140203
32 *836:9 *850:11 0.00294958
33 *844:11 *850:11 2.1933e-05
34 *844:15 *850:11 0.00382876
35 *848:17 *850:11 0.0158005
36 *848:21 *850:11 0.000257114
*RES
1 *898:wbs_dat_o[6] *850:7 22.1582 
2 *850:7 *850:11 49.5296 
3 *850:11 *850:13 324.116 
4 *850:13 *897:sram_dat_i[6] 16.8293 
*END

*D_NET *851 0.119885
*CONN
*I *897:sram_dat_i[7] I *D soc_sys
*I *898:wbs_dat_o[7] O *D CF_SRAM_1024x32_wb_wrapper
*CAP
1 *897:sram_dat_i[7] 0.00196368
2 *898:wbs_dat_o[7] 0.0015801
3 *851:13 0.00821502
4 *851:11 0.00625134
5 *851:9 0.00503662
6 *851:7 0.00661672
7 *897:sram_dat_i[7] *888:7 0.00147503
8 *851:7 *898:wbs_dat_i[8] 0
9 *851:9 *898:wbs_dat_i[11] 0.000449974
10 *851:9 *852:9 0.0232957
11 *851:9 *859:13 0.000136464
12 *851:9 *885:13 0.000537389
13 *851:9 *886:15 0.0178794
14 *851:13 *869:9 0.000238939
15 *898:wbs_adr_i[7] *851:7 0
16 *898:wbs_adr_i[8] *851:7 0
17 *39:37 *851:9 0.00285352
18 *110:13 *851:9 0.000290086
19 *652:33 *851:13 0.00178467
20 *688:9 *851:13 0.0035397
21 *817:9 *851:13 0.0108271
22 *818:7 *897:sram_dat_i[7] 0.00147503
23 *829:21 *851:13 0.0254386
24 *840:21 *851:13 0
*RES
1 *898:wbs_dat_o[7] *851:7 32.7225 
2 *851:7 *851:9 45.4795 
3 *851:9 *851:11 8 
4 *851:11 *851:13 338.906 
5 *851:13 *897:sram_dat_i[7] 14.1675 
*END

*D_NET *852 0.127857
*CONN
*I *897:sram_dat_i[8] I *D soc_sys
*I *898:wbs_dat_o[8] O *D CF_SRAM_1024x32_wb_wrapper
*CAP
1 *897:sram_dat_i[8] 0.00257262
2 *898:wbs_dat_o[8] 0.00160601
3 *852:13 0.00836958
4 *852:11 0.00579696
5 *852:9 0.00523401
6 *852:7 0.00684001
7 *897:sram_dat_i[8] *888:7 0.000528306
8 *897:sram_dat_i[8] *889:7 0.00172457
9 *852:7 *898:wbs_dat_i[8] 0
10 *852:7 *898:wbs_dat_i[9] 0
11 *852:9 *898:wbs_dat_i[11] 0.000148145
12 *852:9 *856:15 0.0165538
13 *852:9 *869:13 0.00126727
14 *852:13 *865:9 0.0257027
15 *852:13 *872:9 0.000443354
16 *852:13 *891:9 0.0233881
17 *898:wbs_adr_i[9] *852:7 0
18 *32:21 *852:9 0.000683526
19 *36:9 *852:9 0.000196487
20 *110:13 *852:9 0.00160965
21 *651:13 *852:13 0
22 *709:9 *852:13 0
23 *740:9 *852:13 0.000563111
24 *819:7 *897:sram_dat_i[8] 0.000494232
25 *824:21 *852:13 0.000838511
26 *851:9 *852:9 0.0232957
*RES
1 *898:wbs_dat_o[8] *852:7 33.4268 
2 *852:7 *852:9 45.6512 
3 *852:9 *852:11 8 
4 *852:11 *852:13 343.836 
5 *852:13 *897:sram_dat_i[8] 15.2837 
*END

*D_NET *853 0.141877
*CONN
*I *897:sram_dat_i[9] I *D soc_sys
*I *898:wbs_dat_o[9] O *D CF_SRAM_1024x32_wb_wrapper
*CAP
1 *897:sram_dat_i[9] 0.00365782
2 *898:wbs_dat_o[9] 0.000849221
3 *853:13 0.00876093
4 *853:11 0.00510311
5 *853:9 0.00674167
6 *853:7 0.00759089
7 *897:sram_dat_i[9] *890:7 0.00265043
8 *853:7 *898:wbs_dat_i[10] 0
9 *853:7 *898:wbs_dat_i[9] 0
10 *853:9 *884:19 0.0150351
11 *853:13 *861:9 0.00361955
12 *853:13 *890:9 0.0261775
13 *141:21 *853:9 0.000214439
14 *143:47 *853:9 0.00305405
15 *730:9 *853:13 0
16 *783:17 *853:13 0
17 *792:19 *853:9 0.000237028
18 *818:13 *853:9 0
19 *820:7 *897:sram_dat_i[9] 0.00266714
20 *823:13 *853:9 0
21 *824:19 *853:9 0.00377109
22 *825:19 *853:9 0.0029148
23 *827:19 *853:9 0.000208821
24 *833:13 *853:13 0.0229012
25 *837:9 *853:9 0.00354552
26 *844:17 *853:13 0.000366925
27 *849:11 *853:9 0.000647467
28 *850:11 *853:9 0.0211622
*RES
1 *898:wbs_dat_o[9] *853:7 21.4539 
2 *853:7 *853:9 42.9893 
3 *853:9 *853:11 8 
4 *853:11 *853:13 336.089 
5 *853:13 *897:sram_dat_i[9] 19.2336 
*END

*D_NET *854 0.0800261
*CONN
*I *898:wbs_sel_i[0] I *D CF_SRAM_1024x32_wb_wrapper
*I *897:sram_sel_o[0] O *D soc_sys
*CAP
1 *898:wbs_sel_i[0] 0.00427076
2 *897:sram_sel_o[0] 0.00351744
3 *854:9 0.00912808
4 *854:7 0.00837476
5 *898:wbs_sel_i[0] *898:wbs_dat_i[7] 0.00168432
6 *854:7 *859:7 0.00134258
7 *854:9 *857:9 0.0217057
8 *897:sram_dat_i[0] *854:7 0.000358786
9 *42:13 *854:9 0.00735627
10 *107:21 *898:wbs_sel_i[0] 0.0146335
11 *540:50 *898:wbs_sel_i[0] 0.00034595
12 *650:23 *854:7 2.24786e-05
13 *651:19 *854:7 0.000106572
14 *800:7 *854:7 0.00235722
15 *816:17 *898:wbs_sel_i[0] 0.00482171
*RES
1 *897:sram_sel_o[0] *854:7 18.0315 
2 *854:7 *854:9 277.634 
3 *854:9 *898:wbs_sel_i[0] 47.5504 
*END

*D_NET *855 0.11778
*CONN
*I *898:wbs_sel_i[1] I *D CF_SRAM_1024x32_wb_wrapper
*I *897:sram_sel_o[1] O *D soc_sys
*CAP
1 *898:wbs_sel_i[1] 0.00124146
2 *897:sram_sel_o[1] 0.0059074
3 *855:15 0.0038227
4 *855:9 0.00687831
5 *855:7 0.0102045
6 *855:7 *870:11 0.00139028
7 *855:9 *863:19 0
8 *855:15 *861:35 0.00162909
9 *855:15 *864:25 0.00255925
10 *898:wbs_adr_i[2] *898:wbs_sel_i[1] 0
11 *724:9 *855:9 0.00175185
12 *732:9 *855:9 0.000870581
13 *758:23 *855:7 0.00012361
14 *762:15 *855:7 0.000949213
15 *781:15 *855:7 0.000454882
16 *788:11 *855:15 0.0122616
17 *792:19 *855:9 0
18 *793:13 *855:9 4.81014e-05
19 *800:7 *855:7 0
20 *806:17 *855:9 0.00013283
21 *811:7 *855:7 0.00340392
22 *811:9 *855:9 0.0227579
23 *823:13 *855:15 0.0121186
24 *824:19 *855:15 0.00103031
25 *825:9 *855:15 0.000597699
26 *826:9 *855:15 0.00294466
27 *826:19 *855:15 0.000275568
28 *828:15 *855:9 0
29 *833:9 *898:wbs_sel_i[1] 0
30 *844:11 *855:15 0.00141465
31 *847:13 *855:9 0.0230107
*RES
1 *897:sram_sel_o[1] *855:7 23.7845 
2 *855:7 *855:9 304.396 
3 *855:9 *855:15 43.2757 
4 *855:15 *898:wbs_sel_i[1] 16.9754 
*END

*D_NET *856 0.10992
*CONN
*I *898:wbs_sel_i[2] I *D CF_SRAM_1024x32_wb_wrapper
*I *897:sram_sel_o[2] O *D soc_sys
*CAP
1 *898:wbs_sel_i[2] 0.00179929
2 *897:sram_sel_o[2] 0.00468869
3 *856:15 0.0057634
4 *856:9 0.00890521
5 *856:7 0.0096298
6 *898:wbs_sel_i[2] *898:wbs_dat_i[3] 0
7 *856:7 *881:7 0.00121598
8 *856:9 *871:9 0
9 *856:9 *885:9 0
10 *856:15 *869:13 0.00616204
11 *897:sram_dat_i[2] *856:7 3.35677e-05
12 *898:wbs_adr_i[3] *898:wbs_sel_i[2] 0
13 *36:9 *856:15 0.00308699
14 *40:13 *856:9 0.000786329
15 *783:15 *856:7 0.00120477
16 *811:7 *856:7 0
17 *814:7 *856:7 0.00313121
18 *815:9 *856:9 0.023506
19 *818:9 *856:9 0.0234531
20 *844:11 *898:wbs_sel_i[2] 0
21 *852:9 *856:15 0.0165538
*RES
1 *897:sram_sel_o[2] *856:7 21.2944 
2 *856:7 *856:9 319.186 
3 *856:9 *856:15 47.4832 
4 *856:15 *898:wbs_sel_i[2] 26.1311 
*END

*D_NET *857 0.114556
*CONN
*I *898:wbs_sel_i[3] I *D CF_SRAM_1024x32_wb_wrapper
*I *897:sram_sel_o[3] O *D soc_sys
*CAP
1 *898:wbs_sel_i[3] 0.00149953
2 *897:sram_sel_o[3] 0.00331393
3 *857:13 0.00549185
4 *857:9 0.0100433
5 *857:7 0.00936494
6 *898:wbs_sel_i[3] *898:wbs_dat_i[3] 0
7 *898:wbs_sel_i[3] *898:wbs_dat_i[4] 0
8 *857:7 *884:7 0.00233908
9 *857:9 *866:9 0.000142712
10 *857:13 *898:wbs_dat_i[11] 0.00266152
11 *857:13 *859:13 0.0160386
12 *857:13 *860:13 0.0179876
13 *857:13 *862:13 0.00354215
14 *857:13 *863:21 0.00306244
15 *857:13 *868:19 0.00016615
16 *857:13 *885:13 0.000245293
17 *898:wbs_adr_i[4] *898:wbs_sel_i[3] 0
18 *42:13 *857:9 0
19 *142:24 *857:9 0
20 *685:9 *857:9 0.00259651
21 *815:7 *857:7 0.00233933
22 *827:21 *857:9 0.0111487
23 *840:19 *857:13 0.00086631
24 *847:9 *898:wbs_sel_i[3] 0
25 *854:9 *857:9 0.0217057
*RES
1 *897:sram_sel_o[3] *857:7 17.9456 
2 *857:7 *857:9 320.595 
3 *857:9 *857:13 44.5493 
4 *857:13 *898:wbs_sel_i[3] 29.9054 
*END

*D_NET *858 0.0967899
*CONN
*I *898:wbs_stb_i I *D CF_SRAM_1024x32_wb_wrapper
*I *897:sram_stb_o O *D soc_sys
*CAP
1 *898:wbs_stb_i 0.00422692
2 *897:sram_stb_o 0.00327795
3 *858:9 0.00880398
4 *858:7 0.00785501
5 *898:wbs_stb_i *898:wbs_dat_i[7] 0.0038197
6 *898:wbs_stb_i *898:wbs_we_i 0
7 *898:wbs_stb_i *881:13 0.00462229
8 *858:7 *891:7 0.00158149
9 *897:sram_dat_i[0] *858:7 0
10 *898:wbs_adr_i[2] *898:wbs_stb_i 0.0128169
11 *898:wbs_adr_i[3] *898:wbs_stb_i 4.76467e-05
12 *898:wbs_cyc_i *898:wbs_stb_i 1.77747e-05
13 *109:21 *898:wbs_stb_i 0.00200105
14 *114:29 *898:wbs_stb_i 0.00262415
15 *540:58 *898:wbs_stb_i 0.00176172
16 *651:21 *858:9 0.000948155
17 *657:21 *858:9 0.00528942
18 *753:9 *858:9 0.00613436
19 *757:9 *858:9 0.000450494
20 *808:19 *898:wbs_stb_i 0.00337694
21 *819:19 *898:wbs_stb_i 0.00367058
22 *821:7 *858:7 0.0019263
23 *850:13 *858:9 0.0215371
*RES
1 *897:sram_stb_o *858:7 16.9152 
2 *858:7 *858:9 276.225 
3 *858:9 *898:wbs_stb_i 47.7621 
*END

*D_NET *859 0.0990605
*CONN
*I *898:wbs_dat_i[0] I *D CF_SRAM_1024x32_wb_wrapper
*I *897:sram_dat_o[0] O *D soc_sys
*CAP
1 *898:wbs_dat_i[0] 0.00162571
2 *897:sram_dat_o[0] 0.00181122
3 *859:13 0.00561797
4 *859:9 0.00968512
5 *859:7 0.00750408
6 *898:wbs_dat_i[0] *898:wbs_we_i 0
7 *859:9 *869:9 0.00544273
8 *859:9 *881:9 0.0217131
9 *859:13 *885:13 0.0147045
10 *897:sram_dat_i[0] *859:7 0.0012513
11 *898:wbs_adr_i[0] *898:wbs_dat_i[0] 0
12 *39:37 *859:13 0.00152473
13 *650:23 *859:7 0.000197395
14 *650:25 *859:9 0.00125623
15 *736:9 *859:9 0.000682247
16 *747:9 *859:9 0.00718466
17 *788:13 *859:9 0.000588498
18 *822:9 *898:wbs_dat_i[0] 0
19 *840:19 *859:13 0.000753414
20 *851:9 *859:13 0.000136464
21 *854:7 *859:7 0.00134258
22 *857:13 *859:13 0.0160386
*RES
1 *897:sram_dat_o[0] *859:7 13.6523 
2 *859:7 *859:9 302.988 
3 *859:9 *859:13 42.832 
4 *859:13 *898:wbs_dat_i[0] 30.6096 
*END

*D_NET *860 0.11783
*CONN
*I *898:wbs_dat_i[10] I *D CF_SRAM_1024x32_wb_wrapper
*I *897:sram_dat_o[10] O *D soc_sys
*CAP
1 *898:wbs_dat_i[10] 0.00136237
2 *897:sram_dat_o[10] 0.00489661
3 *860:13 0.00975946
4 *860:11 0.00839709
5 *860:9 0.00999903
6 *860:7 0.0148956
7 *860:7 *861:7 0
8 *860:7 *890:7 0
9 *860:9 *885:9 0.00015491
10 *860:13 *898:wbs_dat_i[11] 0.00218574
11 *860:13 *861:35 0.00481773
12 *860:13 *862:13 0.000536323
13 *860:13 *863:21 0.00061919
14 *860:13 *866:21 0.00359158
15 *860:13 *867:17 0.00414651
16 *860:13 *868:19 0.000390518
17 *860:13 *868:21 0.00235409
18 *897:sram_dat_i[10] *860:7 0.00188819
19 *897:sram_dat_i[11] *860:7 0.000218381
20 *897:sram_dat_i[12] *860:7 0
21 *898:wbs_adr_i[10] *898:wbs_dat_i[10] 0.000123963
22 *110:21 *860:13 0.000227312
23 *679:9 *860:9 0.00556848
24 *680:9 *860:9 0.00546167
25 *694:9 *860:9 0
26 *702:9 *860:9 0
27 *710:9 *860:9 0.000601648
28 *738:9 *860:9 0.000805699
29 *791:7 *860:7 0.00095205
30 *820:7 *860:7 0
31 *823:7 *898:wbs_dat_i[10] 0
32 *823:13 *860:13 0.003118
33 *825:21 *860:9 0.0109718
34 *840:9 *860:13 0.00179792
35 *844:17 *860:9 0
36 *853:7 *898:wbs_dat_i[10] 0
37 *857:13 *860:13 0.0179876
*RES
1 *897:sram_dat_o[10] *860:7 20.264 
2 *860:7 *860:9 349.471 
3 *860:9 *860:11 8 
4 *860:11 *860:13 42.8176 
5 *860:13 *898:wbs_dat_i[10] 29.2011 
*END

*D_NET *861 0.134293
*CONN
*I *898:wbs_dat_i[11] I *D CF_SRAM_1024x32_wb_wrapper
*I *897:sram_dat_o[11] O *D soc_sys
*CAP
1 *898:wbs_dat_i[11] 0.00441527
2 *897:sram_dat_o[11] 0.00413304
3 *861:35 0.0122576
4 *861:9 0.023939
5 *861:7 0.0202297
6 *898:wbs_dat_i[11] *869:13 0
7 *898:wbs_dat_i[11] *885:13 0.00311596
8 *898:wbs_dat_i[11] *886:15 0.000323591
9 *861:9 *890:9 0.00230128
10 *861:35 *866:19 0.000273828
11 *861:35 *868:19 0.000230616
12 *861:35 *868:21 0.00106824
13 *897:sram_dat_i[11] *861:7 0.00151709
14 *897:sram_dat_i[12] *861:7 0.000637911
15 *898:wbs_adr_i[10] *898:wbs_dat_i[11] 0.000364303
16 *39:29 *898:wbs_dat_i[11] 0.000445248
17 *107:21 *898:wbs_dat_i[11] 0
18 *710:9 *861:9 0.00262332
19 *729:9 *861:9 0.0125456
20 *755:9 *861:9 0.00546618
21 *788:11 *861:35 0.00138856
22 *792:7 *861:7 0.00122338
23 *823:7 *898:wbs_dat_i[11] 0.000107371
24 *823:13 *898:wbs_dat_i[11] 0
25 *823:13 *861:35 0.00389976
26 *824:19 *898:wbs_dat_i[11] 0
27 *824:19 *861:35 0.0090564
28 *826:19 *861:35 0.000696135
29 *833:13 *861:9 0.0029748
30 *839:12 *898:wbs_dat_i[11] 0.000560825
31 *840:9 *861:35 0.000925274
32 *844:17 *861:9 0.00190597
33 *845:27 *898:wbs_dat_i[11] 0.000155062
34 *851:9 *898:wbs_dat_i[11] 0.000449974
35 *852:9 *898:wbs_dat_i[11] 0.000148145
36 *853:13 *861:9 0.00361955
37 *855:15 *861:35 0.00162909
38 *857:13 *898:wbs_dat_i[11] 0.00266152
39 *860:7 *861:7 0
40 *860:13 *898:wbs_dat_i[11] 0.00218574
41 *860:13 *861:35 0.00481773
*RES
1 *897:sram_dat_o[11] *861:7 19.1907 
2 *861:7 *861:9 63.3957 
3 *861:9 *861:35 40.6358 
4 *861:35 *898:wbs_dat_i[11] 43.1277 
*END

*D_NET *862 0.125482
*CONN
*I *898:wbs_dat_i[12] I *D CF_SRAM_1024x32_wb_wrapper
*I *897:sram_dat_o[12] O *D soc_sys
*CAP
1 *898:wbs_dat_i[12] 0.00138869
2 *897:sram_dat_o[12] 0.00430205
3 *862:13 0.00607771
4 *862:11 0.00468902
5 *862:9 0.00575774
6 *862:7 0.0100598
7 *862:9 *871:9 0.000129932
8 *862:9 *889:9 0.0263506
9 *862:13 *863:21 0.0221144
10 *862:13 *866:21 0.00016687
11 *862:13 *867:17 2.50118e-05
12 *897:sram_dat_i[12] *862:7 0.0026277
13 *898:wbs_adr_i[12] *898:wbs_dat_i[12] 0
14 *39:29 *862:13 0.00553991
15 *713:9 *862:9 0.000643683
16 *761:13 *862:7 0.000769709
17 *770:15 *862:7 0.000404166
18 *793:7 *862:7 0.00320593
19 *825:7 *898:wbs_dat_i[12] 0
20 *830:13 *862:9 0.0271508
21 *857:13 *862:13 0.00354215
22 *860:13 *862:13 0.000536323
*RES
1 *897:sram_dat_o[12] *862:7 21.9813 
2 *862:7 *862:9 358.45 
3 *862:9 *862:11 15 
4 *862:11 *862:13 242.171 
5 *862:13 *898:wbs_dat_i[12] 36.7293 
*END

*D_NET *863 0.141426
*CONN
*I *898:wbs_dat_i[13] I *D CF_SRAM_1024x32_wb_wrapper
*I *897:sram_dat_o[13] O *D soc_sys
*CAP
1 *898:wbs_dat_i[13] 0.00133181
2 *897:sram_dat_o[13] 0.00563194
3 *863:21 0.00439679
4 *863:19 0.00394427
5 *863:15 0.000987909
6 *863:9 0.00409169
7 *863:7 0.00961501
8 *863:7 *864:7 0
9 *863:19 *867:13 0.00152907
10 *863:21 *867:17 0.0227763
11 *897:sram_dat_i[13] *863:7 0.000778474
12 *897:sram_dat_i[14] *863:7 0.000523033
13 *898:wbs_adr_i[13] *898:wbs_dat_i[13] 0
14 *39:29 *863:21 5.90229e-05
15 *540:58 *863:15 4.03039e-05
16 *721:9 *863:9 0.00312608
17 *793:7 *863:7 0.00129439
18 *794:7 *863:7 0.00118611
19 *802:9 *863:19 0.000553864
20 *826:7 *898:wbs_dat_i[13] 0
21 *828:15 *863:19 1.51581e-05
22 *828:17 *863:9 0.0267597
23 *831:13 *863:9 0.0267556
24 *831:13 *863:19 0.000233247
25 *855:9 *863:19 0
26 *857:13 *863:21 0.00306244
27 *860:13 *863:21 0.00061919
28 *862:13 *863:21 0.0221144
*RES
1 *897:sram_dat_o[13] *863:7 23.2693 
2 *863:7 *863:9 340.491 
3 *863:9 *863:15 31.5743 
4 *863:15 *863:19 36.9779 
5 *863:19 *863:21 243.6 
6 *863:21 *898:wbs_dat_i[13] 36.3771 
*END

*D_NET *864 0.136951
*CONN
*I *898:wbs_dat_i[14] I *D CF_SRAM_1024x32_wb_wrapper
*I *897:sram_dat_o[14] O *D soc_sys
*CAP
1 *898:wbs_dat_i[14] 0.00102151
2 *897:sram_dat_o[14] 0.00628594
3 *864:25 0.00406832
4 *864:23 0.00434532
5 *864:9 0.00557311
6 *864:7 0.0105605
7 *897:sram_dat_i[14] *864:7 0.00217429
8 *897:sram_dat_i[15] *864:7 0.000965146
9 *898:wbs_adr_i[14] *898:wbs_dat_i[14] 0
10 *110:21 *864:25 0
11 *683:9 *864:9 0
12 *793:7 *864:7 0
13 *795:7 *864:7 0.00103884
14 *796:7 *864:7 0
15 *796:9 *864:9 0.0269553
16 *796:9 *864:23 2.03556e-05
17 *806:13 *864:9 0.00134624
18 *820:9 *864:9 0.0250323
19 *820:17 *864:23 0.000309824
20 *823:13 *864:25 0.000128728
21 *826:7 *898:wbs_dat_i[14] 0
22 *826:9 *864:25 0.0216455
23 *827:7 *898:wbs_dat_i[14] 0
24 *828:9 *864:25 0.0221211
25 *832:17 *864:23 0.000799594
26 *849:13 *864:9 0
27 *849:13 *864:23 0
28 *855:15 *864:25 0.00255925
29 *863:7 *864:7 0
*RES
1 *897:sram_dat_o[14] *864:7 24.5573 
2 *864:7 *864:9 342.428 
3 *864:9 *864:23 36.9675 
4 *864:23 *864:25 242.171 
5 *864:25 *898:wbs_dat_i[14] 31.4471 
*END

*D_NET *865 0.142872
*CONN
*I *898:wbs_dat_i[15] I *D CF_SRAM_1024x32_wb_wrapper
*I *897:sram_dat_o[15] O *D soc_sys
*CAP
1 *898:wbs_dat_i[15] 0.00094596
2 *897:sram_dat_o[15] 0.00203824
3 *865:21 0.00492262
4 *865:19 0.00456628
5 *865:9 0.00644432
6 *865:7 0.00789295
7 *865:9 *872:9 0.0280728
8 *897:sram_dat_i[15] *865:7 0.000471485
9 *898:wbs_adr_i[15] *898:wbs_dat_i[15] 0
10 *67:223 *865:7 0.00246425
11 *141:13 *865:19 0.00132243
12 *143:47 *865:21 0
13 *651:13 *865:9 0
14 *740:9 *865:9 0.00065545
15 *792:19 *865:19 3.07752e-05
16 *796:7 *865:7 0.0017537
17 *824:19 *865:19 0.000262173
18 *824:21 *865:9 0.00114102
19 *827:7 *898:wbs_dat_i[15] 0
20 *827:9 *865:21 0.0248309
21 *827:19 *865:19 0.000294899
22 *828:7 *898:wbs_dat_i[15] 0
23 *828:9 *865:21 0.000247245
24 *829:9 *865:21 0.000491593
25 *829:19 *865:19 0.000541503
26 *830:9 *865:21 0.000348901
27 *831:9 *865:21 0.0234551
28 *844:11 *865:21 0.00285624
29 *848:17 *865:21 0.000164818
30 *848:21 *865:21 0.00015022
31 *850:11 *865:19 0.000803638
32 *852:13 *865:9 0.0257027
*RES
1 *897:sram_dat_o[15] *865:7 15.1979 
2 *865:7 *865:9 362.852 
3 *865:9 *865:19 36.229 
4 *865:19 *865:21 284.096 
5 *865:21 *898:wbs_dat_i[15] 30.3907 
*END

*D_NET *866 0.142019
*CONN
*I *898:wbs_dat_i[16] I *D CF_SRAM_1024x32_wb_wrapper
*I *897:sram_dat_o[16] O *D soc_sys
*CAP
1 *898:wbs_dat_i[16] 0.00118919
2 *897:sram_dat_o[16] 0.00316656
3 *866:21 0.00475018
4 *866:19 0.00409562
5 *866:9 0.00815095
6 *866:7 0.0107829
7 *866:9 *888:9 0.00127356
8 *866:19 *868:19 0.00174061
9 *866:21 *867:17 0.0248209
10 *866:21 *868:21 0.0252669
11 *897:sram_dat_i[16] *866:7 0.00149306
12 *897:sram_dat_i[17] *866:7 0.000573336
13 *898:wbs_adr_i[16] *898:wbs_dat_i[16] 0
14 *39:29 *866:21 0
15 *141:19 *866:9 2.05503e-05
16 *657:21 *866:9 0
17 *685:9 *866:9 0.000375348
18 *692:9 *866:9 0.0183458
19 *737:9 *866:9 0.000878847
20 *796:7 *866:7 0.000385929
21 *797:7 *866:7 0.00109902
22 *823:13 *866:19 0.0017145
23 *827:21 *866:9 0.0276984
24 *828:7 *898:wbs_dat_i[16] 0
25 *829:7 *898:wbs_dat_i[16] 0
26 *840:9 *866:21 2.18506e-05
27 *850:13 *866:9 0
28 *857:9 *866:9 0.000142712
29 *860:13 *866:21 0.00359158
30 *861:35 *866:19 0.000273828
31 *862:13 *866:21 0.00016687
*RES
1 *897:sram_dat_o[16] *866:7 17.688 
2 *866:7 *866:9 373.416 
3 *866:9 *866:19 35.2584 
4 *866:19 *866:21 276.95 
5 *866:21 *898:wbs_dat_i[16] 35.6729 
*END

*D_NET *867 0.141482
*CONN
*I *898:wbs_dat_i[17] I *D CF_SRAM_1024x32_wb_wrapper
*I *897:sram_dat_o[17] O *D soc_sys
*CAP
1 *898:wbs_dat_i[17] 0.00120244
2 *897:sram_dat_o[17] 0.00452135
3 *867:17 0.00503111
4 *867:15 0.00382867
5 *867:13 0.00107477
6 *867:9 0.00568776
7 *867:7 0.00913434
8 *867:13 *886:9 0.000140818
9 *867:17 *868:21 0.000372096
10 *897:sram_dat_i[17] *867:7 0.00341789
11 *898:wbs_adr_i[17] *898:wbs_dat_i[17] 0
12 *39:29 *867:17 0
13 *690:9 *867:9 0.00683989
14 *721:9 *867:9 0.00311599
15 *796:7 *867:7 0
16 *798:7 *867:7 0.0036859
17 *802:9 *867:9 0.0268375
18 *802:9 *867:13 0.000622099
19 *829:7 *898:wbs_dat_i[17] 0
20 *830:7 *898:wbs_dat_i[17] 0
21 *837:13 *867:9 0.0104625
22 *837:13 *867:13 0.00220915
23 *860:13 *867:17 0.00414651
24 *862:13 *867:17 2.50118e-05
25 *863:19 *867:13 0.00152907
26 *863:21 *867:17 0.0227763
27 *866:21 *867:17 0.0248209
*RES
1 *897:sram_dat_o[17] *867:7 23.0117 
2 *867:7 *867:9 341.516 
3 *867:9 *867:13 38.1246 
4 *867:13 *867:15 15 
5 *867:15 *867:17 272.662 
6 *867:17 *898:wbs_dat_i[17] 36.025 
*END

*D_NET *868 0.139849
*CONN
*I *898:wbs_dat_i[18] I *D CF_SRAM_1024x32_wb_wrapper
*I *897:sram_dat_o[18] O *D soc_sys
*CAP
1 *898:wbs_dat_i[18] 0.00114824
2 *897:sram_dat_o[18] 0.00250011
3 *868:21 0.00483175
4 *868:19 0.00430791
5 *868:9 0.00776195
6 *868:7 0.00963766
7 *868:9 *887:9 5.52142e-05
8 *897:sram_dat_i[18] *868:7 0.00208411
9 *651:21 *868:9 0.00183667
10 *675:9 *868:9 0.00841616
11 *686:9 *868:9 0.000865832
12 *741:25 *868:9 0.000889573
13 *799:5 *868:7 0.00208411
14 *823:13 *868:19 0.000353981
15 *823:17 *868:9 0.0268141
16 *826:19 *868:19 1.43527e-05
17 *830:7 *898:wbs_dat_i[18] 0
18 *831:7 *898:wbs_dat_i[18] 0
19 *840:9 *868:21 0.0265642
20 *840:19 *868:19 0.00163347
21 *848:23 *868:9 0.00646003
22 *857:13 *868:19 0.00016615
23 *860:13 *868:19 0.000390518
24 *860:13 *868:21 0.00235409
25 *861:35 *868:19 0.000230616
26 *861:35 *868:21 0.00106824
27 *866:19 *868:19 0.00174061
28 *866:21 *868:21 0.0252669
29 *867:17 *868:21 0.000372096
*RES
1 *897:sram_dat_o[18] *868:7 16.4859 
2 *868:7 *868:9 382.572 
3 *868:9 *868:19 35.8421 
4 *868:19 *868:21 290.766 
5 *868:21 *898:wbs_dat_i[18] 35.3207 
*END

*D_NET *869 0.155012
*CONN
*I *898:wbs_dat_i[19] I *D CF_SRAM_1024x32_wb_wrapper
*I *897:sram_dat_o[19] O *D soc_sys
*CAP
1 *898:wbs_dat_i[19] 0.00153954
2 *897:sram_dat_o[19] 0.0018532
3 *869:13 0.0100739
4 *869:11 0.00853438
5 *869:9 0.00771971
6 *869:7 0.00957291
7 *869:13 *871:13 0.028742
8 *869:13 *887:13 0.000136706
9 *869:13 *890:13 0.000761253
10 *897:sram_dat_i[19] *869:7 0.0013276
11 *898:wbs_dat_i[11] *869:13 0
12 *32:21 *869:13 2.17681e-05
13 *33:13 *869:13 0.00646022
14 *33:21 *869:13 0.00241628
15 *34:13 *869:13 0.00464938
16 *35:13 *869:13 0.00401807
17 *36:9 *869:13 0.000891393
18 *37:9 *869:13 0.00630131
19 *38:17 *869:13 0.00380461
20 *646:18 *869:9 0.0195615
21 *650:25 *869:9 0.00238222
22 *681:9 *869:9 0.0081582
23 *684:9 *869:9 0.00783777
24 *747:9 *869:9 0.00284786
25 *801:5 *869:7 0.0013276
26 *829:21 *869:9 0.000961207
27 *831:7 *898:wbs_dat_i[19] 0
28 *832:7 *898:wbs_dat_i[19] 0
29 *851:13 *869:9 0.000238939
30 *852:9 *869:13 0.00126727
31 *856:15 *869:13 0.00616204
32 *859:9 *869:9 0.00544273
*RES
1 *897:sram_dat_o[19] *869:7 13.9099 
2 *869:7 *869:9 394.545 
3 *869:9 *869:11 8 
4 *869:11 *869:13 60.7637 
5 *869:13 *898:wbs_dat_i[19] 36.2439 
*END

*D_NET *870 0.113572
*CONN
*I *898:wbs_dat_i[1] I *D CF_SRAM_1024x32_wb_wrapper
*I *897:sram_dat_o[1] O *D soc_sys
*CAP
1 *898:wbs_dat_i[1] 0.00068898
2 *897:sram_dat_o[1] 0.00409128
3 *870:19 0.00389098
4 *870:13 0.00695952
5 *870:11 0.0078488
6 *870:13 *885:9 0.0230488
7 *897:sram_dat_i[1] *870:11 0.00424556
8 *898:wbs_adr_i[1] *898:wbs_dat_i[1] 0
9 *726:9 *870:13 0.00096
10 *762:15 *870:11 0.000932954
11 *781:15 *870:11 0.00116666
12 *789:13 *870:19 5.17394e-05
13 *793:17 *870:19 0.00264418
14 *796:13 *870:19 0.00229031
15 *800:7 *870:11 0.000180265
16 *816:9 *870:13 0.0222238
17 *822:9 *870:19 0.014776
18 *822:13 *870:13 0.000377532
19 *833:9 *898:wbs_dat_i[1] 0
20 *833:9 *870:19 0.0155393
21 *849:11 *870:19 0.000264546
22 *855:7 *870:11 0.00139028
*RES
1 *897:sram_dat_o[1] *870:11 20.8464 
2 *870:11 *870:13 294.536 
3 *870:13 *870:19 45.5941 
4 *870:19 *898:wbs_dat_i[1] 9.22821 
*END

*D_NET *871 0.156306
*CONN
*I *898:wbs_dat_i[20] I *D CF_SRAM_1024x32_wb_wrapper
*I *897:sram_dat_o[20] O *D soc_sys
*CAP
1 *898:wbs_dat_i[20] 0.00157564
2 *897:sram_dat_o[20] 0.00367683
3 *871:13 0.00699143
4 *871:11 0.00541578
5 *871:9 0.010746
6 *871:7 0.0144229
7 *898:wbs_dat_i[20] *880:27 2.55105e-05
8 *871:9 *889:9 0
9 *871:13 *872:13 0.00214534
10 *871:13 *890:13 0.0217628
11 *897:sram_dat_i[20] *871:7 0.0031208
12 *898:wbs_adr_i[21] *898:wbs_dat_i[20] 0
13 *32:13 *871:13 0.00539614
14 *32:19 *871:9 0
15 *38:9 *871:13 0.0124598
16 *38:15 *871:9 0
17 *682:9 *871:9 0.00846161
18 *744:9 *871:9 0.0144773
19 *802:7 *871:7 0.000537543
20 *818:9 *871:9 0
21 *830:13 *871:9 0.0104397
22 *832:7 *898:wbs_dat_i[20] 0
23 *835:17 *871:7 0.005779
24 *856:9 *871:9 0
25 *862:9 *871:9 0.000129932
26 *869:13 *871:13 0.028742
*RES
1 *897:sram_dat_o[20] *871:7 21.7237 
2 *871:7 *871:9 399.475 
3 *871:9 *871:11 8 
4 *871:11 *871:13 54.2379 
5 *871:13 *898:wbs_dat_i[20] 36.9482 
*END

*D_NET *872 0.15712
*CONN
*I *898:wbs_dat_i[21] I *D CF_SRAM_1024x32_wb_wrapper
*I *897:sram_dat_o[21] O *D soc_sys
*CAP
1 *898:wbs_dat_i[21] 0.00170095
2 *897:sram_dat_o[21] 0.00225729
3 *872:13 0.00838855
4 *872:11 0.00668759
5 *872:9 0.00687197
6 *872:7 0.00912926
7 *872:9 *891:9 0.000133428
8 *872:13 *887:13 0.0015551
9 *872:13 *889:13 0.0208971
10 *872:13 *890:13 0.000264546
11 *872:13 *891:15 0.0175466
12 *897:sram_dat_i[21] *872:7 0.000551026
13 *898:wbs_adr_i[21] *898:wbs_dat_i[21] 0
14 *31:13 *872:13 0.00659228
15 *33:21 *872:13 0.000245285
16 *66:13 *872:13 0.00872864
17 *651:13 *872:9 0
18 *740:9 *872:9 0.000751652
19 *802:7 *872:7 0.000538238
20 *803:5 *872:7 0.00174512
21 *824:21 *872:9 0.00125623
22 *840:21 *872:9 0.0305973
23 *842:17 *898:wbs_dat_i[21] 2.07396e-05
24 *852:13 *872:9 0.000443354
25 *865:9 *872:9 0.0280728
26 *871:13 *872:13 0.00214534
*RES
1 *897:sram_dat_o[21] *872:7 15.112 
2 *872:7 *872:9 406.518 
3 *872:9 *872:11 8 
4 *872:11 *872:13 62.1376 
5 *872:13 *898:wbs_dat_i[21] 39.7654 
*END

*D_NET *873 0.138271
*CONN
*I *898:wbs_dat_i[22] I *D CF_SRAM_1024x32_wb_wrapper
*I *897:sram_dat_o[22] O *D soc_sys
*CAP
1 *898:wbs_dat_i[22] 0.00201604
2 *897:sram_dat_o[22] 0.0167465
3 *873:9 0.0122989
4 *873:7 0.0102828
5 *873:5 0.0167465
6 *898:wbs_dat_i[22] *898:wbs_dat_i[24] 0.000101859
7 *898:wbs_dat_i[22] *898:wbs_dat_i[25] 0.00593081
8 *898:wbs_dat_i[22] *898:wbs_dat_i[26] 0.000201451
9 *873:5 *874:13 0.0273167
10 *873:5 *875:13 0.00415357
11 *873:9 *877:9 0.0297492
12 *897:sram_dat_i[22] *873:5 0.000193503
13 *898:wbs_adr_i[28] *898:wbs_dat_i[22] 0.000196515
14 *898:wbs_adr_i[31] *898:wbs_dat_i[22] 0.000101859
15 *74:79 *873:5 0
16 *107:21 *898:wbs_dat_i[22] 0.00157152
17 *803:5 *873:5 0.00196527
18 *804:7 *873:5 0.00401892
19 *805:13 *873:5 0
20 *838:17 *873:5 0.0026638
21 *839:12 *898:wbs_dat_i[22] 0.00113549
22 *843:14 *898:wbs_dat_i[22] 0.000778147
23 *846:8 *898:wbs_dat_i[22] 0.000101859
*RES
1 *897:sram_dat_o[22] *873:5 86.5387 
2 *873:5 *873:7 8 
3 *873:7 *873:9 377.642 
4 *873:9 *898:wbs_dat_i[22] 32.1131 
*END

*D_NET *874 0.124189
*CONN
*I *898:wbs_dat_i[23] I *D CF_SRAM_1024x32_wb_wrapper
*I *897:sram_dat_o[23] O *D soc_sys
*CAP
1 *898:wbs_dat_i[23] 0.00520592
2 *897:sram_dat_o[23] 0.000415525
3 *874:17 0.0251818
4 *874:15 0.0199759
5 *874:13 0.00670041
6 *874:11 0.00711593
7 *898:wbs_dat_i[23] *898:wbs_dat_i[27] 0.00289352
8 *874:13 *875:13 0.0104663
9 *897:sram_dat_i[22] *874:13 0.0077036
10 *897:sram_dat_i[23] *874:11 4.92571e-05
11 *898:wbs_adr_i[19] *898:wbs_dat_i[23] 9.83137e-05
12 *898:wbs_adr_i[22] *898:wbs_dat_i[23] 0.000930506
13 *898:wbs_adr_i[23] *898:wbs_dat_i[23] 0
14 *104:26 *874:11 0.000167942
15 *118:71 *874:11 0.000318464
16 *712:9 *874:11 0.00017498
17 *803:5 *874:13 8.9655e-05
18 *805:11 *874:11 0.000182796
19 *824:19 *898:wbs_dat_i[23] 4.62763e-05
20 *835:11 *898:wbs_dat_i[23] 0.00915532
21 *837:7 *898:wbs_dat_i[23] 0
22 *841:29 *898:wbs_dat_i[23] 0
23 *841:31 *874:17 0
24 *873:5 *874:13 0.0273167
*RES
1 *897:sram_dat_o[23] *874:11 21.9187 
2 *874:11 *874:13 51.2755 
3 *874:13 *874:15 8 
4 *874:15 *874:17 68.9808 
5 *874:17 *898:wbs_dat_i[23] 40.0606 
*END

*D_NET *875 0.115317
*CONN
*I *898:wbs_dat_i[24] I *D CF_SRAM_1024x32_wb_wrapper
*I *897:sram_dat_o[24] O *D soc_sys
*CAP
1 *898:wbs_dat_i[24] 3.19244e-05
2 *897:sram_dat_o[24] 0.00628217
3 *875:17 0.0149491
4 *875:15 0.0149172
5 *875:13 0.00573821
6 *875:11 0.0120204
7 *897:sram_dat_i[24] *875:11 0.000407258
8 *897:sram_dat_i[25] *875:11 7.13444e-05
9 *898:wbs_dat_i[22] *898:wbs_dat_i[24] 0.000101859
10 *74:79 *875:11 0.000785119
11 *107:21 *898:wbs_dat_i[24] 2.26654e-05
12 *683:9 *875:11 0
13 *742:9 *875:11 0
14 *803:5 *875:13 0.0308557
15 *804:9 *875:11 0
16 *806:7 *875:11 0.00366492
17 *809:9 *875:17 0.0108489
18 *873:5 *875:13 0.00415357
19 *874:13 *875:13 0.0104663
*RES
1 *897:sram_dat_o[24] *875:11 43.3525 
2 *875:11 *875:13 56.5992 
3 *875:13 *875:15 8 
4 *875:15 *875:17 67.5845 
5 *875:17 *898:wbs_dat_i[24] 16.1848 
*END

*D_NET *876 0.145634
*CONN
*I *898:wbs_dat_i[25] I *D CF_SRAM_1024x32_wb_wrapper
*I *897:sram_dat_o[25] O *D soc_sys
*CAP
1 *898:wbs_dat_i[25] 0.000975553
2 *897:sram_dat_o[25] 0.0160061
3 *876:9 0.0116861
4 *876:7 0.0107106
5 *876:5 0.0160061
6 *898:wbs_dat_i[25] *898:wbs_dat_i[26] 0.000246909
7 *876:5 *877:5 0
8 *876:5 *878:13 0.0351042
9 *897:sram_dat_i[25] *876:5 0.0116776
10 *898:wbs_dat_i[22] *898:wbs_dat_i[25] 0.00593081
11 *805:17 *876:9 0
12 *807:7 *876:5 0.000193503
13 *812:9 *876:9 0.030776
14 *834:11 *898:wbs_dat_i[25] 0.0026733
15 *839:12 *898:wbs_dat_i[25] 0.000267508
16 *843:16 *876:9 0.00337987
*RES
1 *897:sram_dat_o[25] *876:5 85.0789 
2 *876:5 *876:7 8 
3 *876:7 *876:9 391.024 
4 *876:9 *898:wbs_dat_i[25] 26.7893 
*END

*D_NET *877 0.143274
*CONN
*I *898:wbs_dat_i[26] I *D CF_SRAM_1024x32_wb_wrapper
*I *897:sram_dat_o[26] O *D soc_sys
*CAP
1 *898:wbs_dat_i[26] 0.00170843
2 *897:sram_dat_o[26] 0.0193876
3 *877:9 0.00653109
4 *877:7 0.00482266
5 *877:5 0.0193876
6 *898:wbs_dat_i[26] *898:wbs_dat_i[28] 0.00449766
7 *898:wbs_dat_i[26] *883:21 0.00012144
8 *877:5 *878:13 0.00129566
9 *877:5 *880:13 0.00567257
10 *877:9 *879:9 0.0312835
11 *897:sram_dat_i[26] *877:5 0.00172038
12 *898:wbs_adr_i[19] *898:wbs_dat_i[26] 0.000767905
13 *898:wbs_adr_i[26] *898:wbs_dat_i[26] 0
14 *898:wbs_adr_i[28] *898:wbs_dat_i[26] 0.000161889
15 *898:wbs_dat_i[22] *898:wbs_dat_i[26] 0.000201451
16 *898:wbs_dat_i[25] *898:wbs_dat_i[26] 0.000246909
17 *109:21 *898:wbs_dat_i[26] 0.000283278
18 *114:29 *898:wbs_dat_i[26] 0.000681028
19 *808:7 *877:5 0.00106922
20 *809:5 *877:5 0
21 *834:11 *898:wbs_dat_i[26] 0.0045324
22 *840:7 *898:wbs_dat_i[26] 0
23 *841:35 *877:5 0.00883221
24 *843:14 *898:wbs_dat_i[26] 0.000319896
25 *873:9 *877:9 0.0297492
26 *876:5 *877:5 0
*RES
1 *897:sram_dat_o[26] *877:5 86.4528 
2 *877:5 *877:7 8 
3 *877:7 *877:9 397.362 
4 *877:9 *898:wbs_dat_i[26] 28.3563 
*END

*D_NET *878 0.130847
*CONN
*I *898:wbs_dat_i[27] I *D CF_SRAM_1024x32_wb_wrapper
*I *897:sram_dat_o[27] O *D soc_sys
*CAP
1 *898:wbs_dat_i[27] 0.00371849
2 *897:sram_dat_o[27] 0.000485961
3 *878:17 0.0247449
4 *878:15 0.0210264
5 *878:13 0.0085597
6 *878:11 0.00904566
7 *878:11 *880:11 6.17582e-05
8 *878:11 *880:13 6.80247e-05
9 *897:sram_dat_i[27] *878:11 0.000550021
10 *898:wbs_adr_i[22] *898:wbs_dat_i[27] 0.00253603
11 *898:wbs_adr_i[27] *898:wbs_dat_i[27] 0
12 *898:wbs_dat_i[23] *898:wbs_dat_i[27] 0.00289352
13 *65:13 *898:wbs_dat_i[27] 0.000451076
14 *104:26 *878:11 7.36284e-05
15 *113:21 *898:wbs_dat_i[27] 0.000398256
16 *142:26 *898:wbs_dat_i[27] 0.000520771
17 *712:9 *878:11 0.000271673
18 *801:17 *878:17 0
19 *806:21 *898:wbs_dat_i[27] 0.000227312
20 *807:7 *878:13 0.00701195
21 *807:13 *898:wbs_dat_i[27] 0.000257456
22 *809:5 *878:11 0.000199617
23 *840:7 *898:wbs_dat_i[27] 0
24 *841:13 *898:wbs_dat_i[27] 0
25 *841:35 *878:13 0.0113446
26 *876:5 *878:13 0.0351042
27 *877:5 *878:13 0.00129566
*RES
1 *897:sram_dat_o[27] *878:11 24.7359 
2 *878:11 *878:13 65.5293 
3 *878:13 *878:15 8 
4 *878:15 *878:17 71.6464 
5 *878:17 *898:wbs_dat_i[27] 31.663 
*END

*D_NET *879 0.152104
*CONN
*I *898:wbs_dat_i[28] I *D CF_SRAM_1024x32_wb_wrapper
*I *897:sram_dat_o[28] O *D soc_sys
*CAP
1 *898:wbs_dat_i[28] 0.000935613
2 *897:sram_dat_o[28] 0.0162929
3 *879:9 0.00572428
4 *879:7 0.00478867
5 *879:5 0.0162929
6 *898:wbs_dat_i[28] *882:17 0.000347006
7 *898:wbs_dat_i[28] *883:21 0.000143709
8 *879:9 *882:9 0.0319453
9 *879:9 *882:17 4.15283e-06
10 *897:sram_dat_i[28] *879:5 0.012462
11 *897:sram_dat_i[29] *879:5 0.00199477
12 *898:wbs_adr_i[19] *898:wbs_dat_i[28] 0.00436827
13 *898:wbs_dat_i[26] *898:wbs_dat_i[28] 0.00449766
14 *799:9 *879:9 9.30443e-06
15 *809:5 *879:5 0.00357201
16 *810:5 *879:5 0.0174417
17 *841:13 *898:wbs_dat_i[28] 0
18 *842:7 *898:wbs_dat_i[28] 0
19 *877:9 *879:9 0.0312835
*RES
1 *897:sram_dat_o[28] *879:5 86.3669 
2 *879:5 *879:7 8 
3 *879:7 *879:9 406.518 
4 *879:9 *898:wbs_dat_i[28] 26.3987 
*END

*D_NET *880 0.10817
*CONN
*I *898:wbs_dat_i[29] I *D CF_SRAM_1024x32_wb_wrapper
*I *897:sram_dat_o[29] O *D soc_sys
*CAP
1 *898:wbs_dat_i[29] 0.000171035
2 *897:sram_dat_o[29] 0.000492769
3 *880:29 0.00118642
4 *880:27 0.00161198
5 *880:17 0.0215402
6 *880:15 0.0209436
7 *880:13 0.012918
8 *880:11 0.0134108
9 *880:29 *883:21 0.00489031
10 *897:sram_dat_i[27] *880:13 2.81221e-05
11 *897:sram_dat_i[29] *880:11 0.000161975
12 *898:wbs_adr_i[19] *880:29 0.000407698
13 *898:wbs_adr_i[29] *898:wbs_dat_i[29] 0
14 *898:wbs_adr_i[30] *898:wbs_dat_i[29] 0
15 *898:wbs_dat_i[20] *880:27 2.55105e-05
16 *104:26 *880:11 0.000703714
17 *712:9 *880:11 0.000186131
18 *808:7 *880:13 0.000542527
19 *808:21 *880:29 0.000449595
20 *809:5 *880:13 0.0117891
21 *810:29 *880:29 0.000120857
22 *812:5 *880:11 0.000161975
23 *834:11 *880:27 4.07138e-06
24 *839:12 *880:27 0.00249405
25 *841:29 *880:27 0.000619949
26 *842:9 *880:29 0.00463037
27 *842:17 *880:27 0.0024996
28 *845:9 *880:29 0.000213869
29 *845:23 *880:17 0.000163711
30 *877:5 *880:13 0.00567257
31 *878:11 *880:11 6.17582e-05
32 *878:11 *880:13 6.80247e-05
*RES
1 *897:sram_dat_o[29] *880:11 26.0586 
2 *880:11 *880:13 62.8675 
3 *880:13 *880:15 8 
4 *880:15 *880:17 72.1541 
5 *880:17 *880:27 37.3795 
6 *880:27 *880:29 63.0336 
7 *880:29 *898:wbs_dat_i[29] 17.3614 
*END

*D_NET *881 0.103391
*CONN
*I *898:wbs_dat_i[2] I *D CF_SRAM_1024x32_wb_wrapper
*I *897:sram_dat_o[2] O *D soc_sys
*CAP
1 *898:wbs_dat_i[2] 0
2 *897:sram_dat_o[2] 0.00178297
3 *881:13 0.00506533
4 *881:9 0.00937295
5 *881:7 0.00609059
6 *881:13 *898:wbs_dat_i[7] 0.00310022
7 *897:sram_dat_i[2] *881:7 0.000646285
8 *898:wbs_adr_i[2] *881:13 0.000444333
9 *898:wbs_stb_i *881:13 0.00462229
10 *540:50 *881:13 0.00382919
11 *650:25 *881:9 0.00114102
12 *650:35 *881:13 0.000185107
13 *651:31 *881:13 0.000317593
14 *676:15 *881:7 0.00126364
15 *711:9 *881:9 0.000720587
16 *736:9 *881:9 0.000594928
17 *747:9 *881:9 0.000407505
18 *788:13 *881:9 0.0210714
19 *814:19 *881:13 0.000506665
20 *816:17 *881:13 0.0164939
21 *819:19 *881:13 0.00226042
22 *839:12 *881:13 0.000545043
23 *856:7 *881:7 0.00121598
24 *859:9 *881:9 0.0217131
*RES
1 *897:sram_dat_o[2] *881:7 13.5664 
2 *881:7 *881:9 291.015 
3 *881:9 *881:13 46.3525 
4 *881:13 *898:wbs_dat_i[2] 8 
*END

*D_NET *882 0.128172
*CONN
*I *898:wbs_dat_i[30] I *D CF_SRAM_1024x32_wb_wrapper
*I *897:sram_dat_o[30] O *D soc_sys
*CAP
1 *898:wbs_dat_i[30] 0.000127646
2 *897:sram_dat_o[30] 0.0146648
3 *882:17 0.00093344
4 *882:9 0.00732457
5 *882:7 0.00651878
6 *882:5 0.0146648
7 *882:17 *883:21 0.000661045
8 *897:sram_dat_i[29] *882:5 0
9 *897:sram_dat_i[30] *882:5 0.0157855
10 *897:sram_dat_i[31] *882:5 0.011745
11 *898:wbs_adr_i[30] *898:wbs_dat_i[30] 0
12 *898:wbs_dat_i[28] *882:17 0.000347006
13 *114:29 *882:17 0.0027357
14 *799:9 *882:9 0.0150472
15 *799:9 *882:17 2.05503e-05
16 *803:9 *882:9 0
17 *805:17 *882:9 0
18 *812:5 *882:5 0.00456614
19 *813:11 *882:5 0.00108064
20 *845:7 *898:wbs_dat_i[30] 0
21 *879:9 *882:9 0.0319453
22 *879:9 *882:17 4.15283e-06
*RES
1 *897:sram_dat_o[30] *882:5 86.2811 
2 *882:5 *882:7 8 
3 *882:7 *882:9 414.265 
4 *882:9 *882:17 46.1025 
5 *882:17 *898:wbs_dat_i[30] 16.6571 
*END

*D_NET *883 0.131873
*CONN
*I *898:wbs_dat_i[31] I *D CF_SRAM_1024x32_wb_wrapper
*I *897:sram_dat_o[31] O *D soc_sys
*CAP
1 *898:wbs_dat_i[31] 0.000159709
2 *897:sram_dat_o[31] 0.00941339
3 *883:21 0.00138484
4 *883:19 0.00128465
5 *883:9 0.0221377
6 *883:7 0.0220781
7 *883:5 0.00941339
8 *897:sram_dat_i[31] *883:5 0.0198775
9 *898:wbs_adr_i[19] *883:21 0.00010722
10 *898:wbs_dat_i[26] *883:21 0.00012144
11 *898:wbs_dat_i[28] *883:21 0.000143709
12 *114:29 *883:21 0.00120788
13 *142:26 *883:21 0
14 *808:21 *883:21 0.00337391
15 *810:9 *883:9 0
16 *810:25 *883:9 0.000150289
17 *810:25 *883:19 1.58785e-05
18 *813:13 *883:5 0.0352514
19 *834:11 *883:19 4.62763e-05
20 *835:11 *883:19 2.11283e-05
21 *838:11 *883:19 5.45304e-05
22 *845:7 *898:wbs_dat_i[31] 0
23 *845:9 *883:21 7.84736e-05
24 *880:29 *883:21 0.00489031
25 *882:17 *883:21 0.000661045
*RES
1 *897:sram_dat_o[31] *883:5 69.7517 
2 *883:5 *883:7 8 
3 *883:7 *883:9 75.4544 
4 *883:9 *883:19 31.7721 
5 *883:19 *883:21 68.2743 
6 *883:21 *898:wbs_dat_i[31] 17.0093 
*END

*D_NET *884 0.0975318
*CONN
*I *898:wbs_dat_i[3] I *D CF_SRAM_1024x32_wb_wrapper
*I *897:sram_dat_o[3] O *D soc_sys
*CAP
1 *898:wbs_dat_i[3] 0.000858331
2 *897:sram_dat_o[3] 0.00636738
3 *884:19 0.00385371
4 *884:9 0.011839
5 *884:7 0.015211
6 *897:sram_dat_i[3] *884:7 0.00371606
7 *898:wbs_adr_i[3] *898:wbs_dat_i[3] 0
8 *898:wbs_sel_i[2] *898:wbs_dat_i[3] 0
9 *898:wbs_sel_i[3] *898:wbs_dat_i[3] 0
10 *141:21 *884:19 0.00291503
11 *815:7 *884:7 0.000334502
12 *824:19 *884:19 0.00224931
13 *825:19 *884:19 0.000246935
14 *847:9 *898:wbs_dat_i[3] 0
15 *849:11 *884:19 0.0083985
16 *849:13 *884:9 0.0241679
17 *853:9 *884:19 0.0150351
18 *857:7 *884:7 0.00233908
*RES
1 *897:sram_dat_o[3] *884:7 25.5019 
2 *884:7 *884:9 309.326 
3 *884:9 *884:19 44.3733 
4 *884:19 *898:wbs_dat_i[3] 12.7496 
*END

*D_NET *885 0.122962
*CONN
*I *898:wbs_dat_i[4] I *D CF_SRAM_1024x32_wb_wrapper
*I *897:sram_dat_o[4] O *D soc_sys
*CAP
1 *898:wbs_dat_i[4] 0.00158656
2 *897:sram_dat_o[4] 0.00433825
3 *885:13 0.00526372
4 *885:9 0.00846634
5 *885:7 0.00912743
6 *885:13 *886:15 0.0172094
7 *897:sram_dat_i[4] *885:7 0.00194651
8 *898:wbs_adr_i[4] *898:wbs_dat_i[4] 0
9 *898:wbs_dat_i[11] *885:13 0.00311596
10 *898:wbs_sel_i[3] *898:wbs_dat_i[4] 0
11 *39:29 *885:13 0.003776
12 *726:9 *885:9 0.000137256
13 *738:9 *885:9 0.000599836
14 *795:19 *885:9 0
15 *815:7 *885:7 0.00041453
16 *816:7 *885:7 0.00294263
17 *816:9 *885:9 0.000674829
18 *822:13 *885:9 1.70419e-05
19 *825:21 *885:9 0.0246547
20 *848:7 *898:wbs_dat_i[4] 0
21 *851:9 *885:13 0.000537389
22 *856:9 *885:9 0
23 *857:13 *885:13 0.000245293
24 *859:13 *885:13 0.0147045
25 *860:9 *885:9 0.00015491
26 *870:13 *885:9 0.0230488
*RES
1 *897:sram_dat_o[4] *885:7 20.5216 
2 *885:7 *885:9 326.229 
3 *885:9 *885:13 42.832 
4 *885:13 *898:wbs_dat_i[4] 31.3139 
*END

*D_NET *886 0.12254
*CONN
*I *898:wbs_dat_i[5] I *D CF_SRAM_1024x32_wb_wrapper
*I *897:sram_dat_o[5] O *D soc_sys
*CAP
1 *898:wbs_dat_i[5] 0.00159466
2 *897:sram_dat_o[5] 0.0054758
3 *886:15 0.0050705
4 *886:9 0.00860121
5 *886:7 0.0106012
6 *886:9 *889:9 0
7 *897:sram_dat_i[5] *886:7 0.00346284
8 *897:sram_dat_i[6] *886:7 0.000206406
9 *898:wbs_dat_i[11] *886:15 0.000323591
10 *713:9 *886:9 0
11 *721:9 *886:9 0.000483753
12 *725:9 *886:9 0.000947916
13 *780:9 *886:9 0.00114482
14 *800:9 *886:9 8.73309e-05
15 *807:9 *886:9 0.0245623
16 *814:9 *886:9 0.0231413
17 *817:7 *886:7 0.00138709
18 *818:7 *886:7 0
19 *837:13 *886:9 0.000220036
20 *848:7 *898:wbs_dat_i[5] 0
21 *849:7 *898:wbs_dat_i[5] 0
22 *851:9 *886:15 0.0178794
23 *867:13 *886:9 0.000140818
24 *885:13 *886:15 0.0172094
*RES
1 *897:sram_dat_o[5] *886:7 22.6683 
2 *886:7 *886:9 331.159 
3 *886:9 *886:15 49.9733 
4 *886:15 *898:wbs_dat_i[5] 24.0182 
*END

*D_NET *887 0.120505
*CONN
*I *898:wbs_dat_i[6] I *D CF_SRAM_1024x32_wb_wrapper
*I *897:sram_dat_o[6] O *D soc_sys
*CAP
1 *898:wbs_dat_i[6] 0.00196774
2 *897:sram_dat_o[6] 0.00281474
3 *887:13 0.00565729
4 *887:9 0.00993476
5 *887:7 0.00905995
6 *887:13 *889:13 0.019513
7 *887:13 *890:13 0.0210873
8 *897:sram_dat_i[6] *887:7 0.00156408
9 *898:wbs_adr_i[6] *898:wbs_dat_i[6] 0
10 *31:13 *887:13 0.00321365
11 *33:21 *887:13 0.000490121
12 *67:229 *887:7 0.000736462
13 *143:45 *887:9 5.50303e-05
14 *686:9 *887:9 0.00344599
15 *757:9 *887:9 0.000335389
16 *818:7 *887:7 0.00205717
17 *823:17 *887:9 0.02562
18 *849:7 *898:wbs_dat_i[6] 0
19 *850:7 *898:wbs_dat_i[6] 0
20 *850:13 *887:9 0.0112052
21 *868:9 *887:9 5.52142e-05
22 *869:13 *887:13 0.000136706
23 *872:13 *887:13 0.0015551
*RES
1 *897:sram_dat_o[6] *887:7 16.6576 
2 *887:7 *887:9 341.724 
3 *887:9 *887:13 49.272 
4 *887:13 *898:wbs_dat_i[6] 38.3568 
*END

*D_NET *888 0.124843
*CONN
*I *898:wbs_dat_i[7] I *D CF_SRAM_1024x32_wb_wrapper
*I *897:sram_dat_o[7] O *D soc_sys
*CAP
1 *898:wbs_dat_i[7] 0.0178015
2 *897:sram_dat_o[7] 0.0035243
3 *888:9 0.0344775
4 *888:7 0.0202003
5 *888:7 *889:7 0
6 *897:sram_dat_i[7] *888:7 0.00147503
7 *897:sram_dat_i[8] *888:7 0.000528306
8 *898:wbs_adr_i[2] *898:wbs_dat_i[7] 0.00382387
9 *898:wbs_adr_i[3] *898:wbs_dat_i[7] 0.00328107
10 *898:wbs_sel_i[0] *898:wbs_dat_i[7] 0.00168432
11 *898:wbs_stb_i *898:wbs_dat_i[7] 0.0038197
12 *107:21 *898:wbs_dat_i[7] 0.00198687
13 *540:50 *898:wbs_dat_i[7] 0.000127878
14 *541:27 *898:wbs_dat_i[7] 0.000425872
15 *651:21 *888:9 0
16 *657:21 *888:9 0.000118027
17 *658:21 *888:9 0
18 *692:9 *888:9 0.00100836
19 *696:9 *888:9 0.000129945
20 *704:9 *888:9 0.000574773
21 *715:9 *888:9 0.000659135
22 *728:9 *888:9 0.000901976
23 *737:9 *888:9 0.0104861
24 *757:9 *888:9 0.00227289
25 *758:17 *888:9 0.00436727
26 *808:19 *898:wbs_dat_i[7] 0.000616609
27 *814:19 *898:wbs_dat_i[7] 0.000124607
28 *816:17 *898:wbs_dat_i[7] 0.00273416
29 *818:7 *888:7 0.000329344
30 *819:7 *888:7 0.000504334
31 *819:19 *898:wbs_dat_i[7] 0.000478067
32 *827:21 *888:9 0.00118823
33 *838:11 *898:wbs_dat_i[7] 0.000341457
34 *839:12 *898:wbs_dat_i[7] 0.000375711
35 *842:17 *898:wbs_dat_i[7] 0.000101554
36 *866:9 *888:9 0.00127356
37 *881:13 *898:wbs_dat_i[7] 0.00310022
*RES
1 *897:sram_dat_o[7] *888:7 17.4733 
2 *888:7 *888:9 57.176 
3 *888:9 *898:wbs_dat_i[7] 23.7475 
*END

*D_NET *889 0.127444
*CONN
*I *898:wbs_dat_i[8] I *D CF_SRAM_1024x32_wb_wrapper
*I *897:sram_dat_o[8] O *D soc_sys
*CAP
1 *898:wbs_dat_i[8] 0.00196594
2 *897:sram_dat_o[8] 0.00509637
3 *889:13 0.00525507
4 *889:9 0.0118296
5 *889:7 0.0136369
6 *889:13 *890:13 0.000733936
7 *897:sram_dat_i[8] *889:7 0.00172457
8 *898:wbs_adr_i[8] *898:wbs_dat_i[8] 0
9 *31:13 *889:13 0.00343717
10 *713:9 *889:9 0.0136542
11 *800:9 *889:9 0
12 *818:7 *889:7 0
13 *820:7 *889:7 0.00334949
14 *851:7 *898:wbs_dat_i[8] 0
15 *852:7 *898:wbs_dat_i[8] 0
16 *862:9 *889:9 0.0263506
17 *871:9 *889:9 0
18 *872:13 *889:13 0.0208971
19 *886:9 *889:9 0
20 *887:13 *889:13 0.019513
21 *888:7 *889:7 0
*RES
1 *897:sram_dat_o[8] *889:7 22.0672 
2 *889:7 *889:9 350.879 
3 *889:9 *889:13 46.4384 
4 *889:13 *898:wbs_dat_i[8] 39.0611 
*END

*D_NET *890 0.123694
*CONN
*I *898:wbs_dat_i[9] I *D CF_SRAM_1024x32_wb_wrapper
*I *897:sram_dat_o[9] O *D soc_sys
*CAP
1 *898:wbs_dat_i[9] 0.0018748
2 *897:sram_dat_o[9] 0.00394143
3 *890:13 0.00562069
4 *890:11 0.00374589
5 *890:9 0.00904253
6 *890:7 0.012984
7 *897:sram_dat_i[10] *890:7 0.000432447
8 *897:sram_dat_i[9] *890:7 0.00265043
9 *898:wbs_adr_i[9] *898:wbs_dat_i[9] 0
10 *39:35 *890:9 0
11 *42:13 *890:9 0
12 *110:19 *890:9 0
13 *142:24 *890:9 0
14 *674:9 *890:9 0.00565561
15 *695:9 *890:9 0
16 *707:9 *890:9 0
17 *729:9 *890:9 0.000927717
18 *746:9 *890:9 0.00264302
19 *783:17 *890:9 0
20 *790:7 *890:7 0.00105897
21 *827:19 *890:9 0
22 *844:17 *890:9 2.79882e-05
23 *852:7 *898:wbs_dat_i[9] 0
24 *853:7 *898:wbs_dat_i[9] 0
25 *853:13 *890:9 0.0261775
26 *860:7 *890:7 0
27 *861:9 *890:9 0.00230128
28 *869:13 *890:13 0.000761253
29 *871:13 *890:13 0.0217628
30 *872:13 *890:13 0.000264546
31 *887:13 *890:13 0.0210873
32 *889:13 *890:13 0.000733936
*RES
1 *897:sram_dat_o[9] *890:7 19.1477 
2 *890:7 *890:9 353.696 
3 *890:9 *890:11 8 
4 *890:11 *890:13 42.6459 
5 *890:13 *898:wbs_dat_i[9] 37.6525 
*END

*D_NET *891 0.10119
*CONN
*I *898:wbs_we_i I *D CF_SRAM_1024x32_wb_wrapper
*I *897:sram_we_o O *D soc_sys
*CAP
1 *898:wbs_we_i 0.00228254
2 *897:sram_we_o 0.00282837
3 *891:15 0.00496225
4 *891:9 0.0122429
5 *891:7 0.0123916
6 *897:sram_dat_i[0] *891:7 0.000639916
7 *898:wbs_adr_i[0] *898:wbs_we_i 0
8 *898:wbs_dat_i[0] *898:wbs_we_i 0
9 *898:wbs_stb_i *898:wbs_we_i 0
10 *31:13 *891:15 0.00410946
11 *66:13 *891:15 0.0175466
12 *651:31 *891:9 0
13 *691:9 *891:9 0
14 *709:9 *891:9 0
15 *740:9 *891:9 0.000511465
16 *789:7 *891:7 0.000187081
17 *824:21 *891:9 0.000838511
18 *848:23 *891:9 0
19 *852:13 *891:9 0.0233881
20 *858:7 *891:7 0.00158149
21 *872:9 *891:9 0.000133428
22 *872:13 *891:15 0.0175466
*RES
1 *897:sram_we_o *891:7 15.3696 
2 *891:7 *891:9 308.622 
3 *891:9 *891:15 48.256 
4 *891:15 *898:wbs_we_i 32.4696 
*END
